search
1.0
17.131700 0.000000 0.000000
0.000000 10.000000 0.000000
0.000000 0.000000 50.000000
C H 
227 73 
Selective dynamics
Direct
0.266798 0.500000 0.784579 T T T
0.266798 0.500000 0.833779 T T T
0.266798 0.500000 0.882979 T T T
0.266798 0.500000 0.932179 T T T
0.266798 0.500000 0.981379 T T T
0.391799 0.500000 0.661579 T T T
0.391799 0.500000 0.710779 T T T
0.391799 0.500000 0.759979 T T T
0.391799 0.500000 0.809179 T T T
0.391799 0.500000 0.858379 T T T
0.391799 0.500000 0.907579 T T T
0.391799 0.500000 0.956779 T T T
0.350138 0.500000 0.686179 T T T
0.350138 0.500000 0.735379 T T T
0.350138 0.500000 0.784579 T T T
0.350138 0.500000 0.833779 T T T
0.350138 0.500000 0.882979 T T T
0.350138 0.500000 0.932179 T T T
0.350138 0.500000 0.981379 T T T
0.475139 0.500000 0.661579 T T T
0.475139 0.500000 0.710779 T T T
0.475139 0.500000 0.759979 T T T
0.475139 0.500000 0.809179 T T T
0.475139 0.500000 0.858379 T T T
0.475139 0.500000 0.907579 T T T
0.475139 0.500000 0.956779 T T T
0.516798 0.500000 0.686179 T T T
0.516798 0.500000 0.735379 T T T
0.516798 0.500000 0.784579 T T T
0.516798 0.500000 0.833779 T T T
0.516798 0.500000 0.882979 T T T
0.516798 0.500000 0.932179 T T T
0.516798 0.500000 0.981379 T T T
0.641799 0.500000 0.661579 T T T
0.641799 0.500000 0.710779 T T T
0.641799 0.500000 0.759979 T T T
0.641799 0.500000 0.809179 T T T
0.641799 0.500000 0.858379 T T T
0.641799 0.500000 0.907579 T T T
0.641799 0.500000 0.956779 T T T
0.600138 0.500000 0.686179 T T T
0.600138 0.500000 0.735379 T T T
0.600138 0.500000 0.784579 T T T
0.600138 0.500000 0.833779 T T T
0.600138 0.500000 0.882979 T T T
0.600138 0.500000 0.932179 T T T
0.600138 0.500000 0.981379 T T T
0.725139 0.500000 0.661579 T T T
0.725139 0.500000 0.710779 T T T
0.725139 0.500000 0.759979 T T T
0.725139 0.500000 0.809179 T T T
0.725139 0.500000 0.858379 T T T
0.725139 0.500000 0.907579 T T T
0.725139 0.500000 0.956779 T T T
0.766798 0.500000 0.686179 T T T
0.766798 0.500000 0.735379 T T T
0.766798 0.500000 0.784579 T T T
0.766798 0.500000 0.833779 T T T
0.766798 0.500000 0.882979 T T T
0.766798 0.500000 0.932179 T T T
0.766798 0.500000 0.981379 T T T
0.891799 0.500000 0.661579 T T T
0.891799 0.500000 0.710779 T T T
0.891799 0.500000 0.759979 T T T
0.891799 0.500000 0.809179 T T T
0.891799 0.500000 0.858379 T T T
0.891799 0.500000 0.907579 T T T
0.891799 0.500000 0.956779 T T T
0.850138 0.500000 0.686179 T T T
0.850138 0.500000 0.735379 T T T
0.850138 0.500000 0.784579 T T T
0.850138 0.500000 0.833779 T T T
0.850138 0.500000 0.882979 T T T
0.850138 0.500000 0.932179 T T T
0.850138 0.500000 0.981379 T T T
0.975139 0.500000 0.661579 T T T
0.975139 0.500000 0.710779 T T T
0.975139 0.500000 0.759979 T T T
0.975139 0.500000 0.809179 T T T
0.975139 0.500000 0.858379 T T T
0.975139 0.500000 0.907579 T T T
0.975139 0.500000 0.956779 T T T
0.997670 0.500000 0.171310 F F F
0.997670 0.500000 0.256530 F F F
0.997670 0.500000 0.341750 F F F
0.997670 0.500000 0.426960 F F F
0.997670 0.500000 0.199720 F F F
0.997670 0.500000 0.284930 F F F
0.997670 0.500000 0.370150 F F F
0.997670 0.500000 0.455370 F F F
0.926240 0.500000 0.213920 F F F
0.926240 0.500000 0.299140 F F F
0.926240 0.500000 0.384350 F F F
0.926240 0.500000 0.469570 F F F
0.926240 0.500000 0.157110 F F F
0.926240 0.500000 0.242330 F F F
0.926240 0.500000 0.327540 F F F
0.926240 0.500000 0.412760 F F F
0.854810 0.500000 0.171310 F F F
0.854810 0.500000 0.256530 F F F
0.854810 0.500000 0.341750 F F F
0.854810 0.500000 0.426960 F F F
0.783380 0.500000 0.213920 F F F
0.783380 0.500000 0.299140 F F F
0.783380 0.500000 0.384350 F F F
0.783380 0.500000 0.469570 F F F
0.854810 0.500000 0.199720 F F F
0.854810 0.500000 0.284930 F F F
0.854810 0.500000 0.370150 F F F
0.854810 0.500000 0.455370 F F F
0.783380 0.500000 0.157110 F F F
0.783380 0.500000 0.242330 F F F
0.783380 0.500000 0.327540 F F F
0.783380 0.500000 0.412760 F F F
0.711960 0.500000 0.171310 F F F
0.711960 0.500000 0.256530 F F F
0.711960 0.500000 0.341750 F F F
0.711960 0.500000 0.426960 F F F
0.640530 0.500000 0.213920 F F F
0.640530 0.500000 0.299140 F F F
0.640530 0.500000 0.384350 F F F
0.640530 0.500000 0.469570 F F F
0.711960 0.500000 0.199720 F F F
0.711960 0.500000 0.284930 F F F
0.711960 0.500000 0.370150 F F F
0.711960 0.500000 0.455370 F F F
0.640530 0.500000 0.157110 F F F
0.640530 0.500000 0.242330 F F F
0.640530 0.500000 0.327540 F F F
0.640530 0.500000 0.412760 F F F
0.569100 0.500000 0.171310 F F F
0.569100 0.500000 0.256530 F F F
0.569100 0.500000 0.341750 F F F
0.569100 0.500000 0.426960 F F F
0.497670 0.500000 0.213920 F F F
0.497670 0.500000 0.299140 F F F
0.497670 0.500000 0.384350 F F F
0.497670 0.500000 0.469570 F F F
0.569100 0.500000 0.199720 F F F
0.569100 0.500000 0.284930 F F F
0.569100 0.500000 0.370150 F F F
0.569100 0.500000 0.455370 F F F
0.497670 0.500000 0.157110 F F F
0.497670 0.500000 0.242330 F F F
0.497670 0.500000 0.327540 F F F
0.497670 0.500000 0.412760 F F F
0.426240 0.500000 0.171310 F F F
0.426240 0.500000 0.256530 F F F
0.426240 0.500000 0.341750 F F F
0.426240 0.500000 0.426960 F F F
0.354810 0.500000 0.213920 F F F
0.354810 0.500000 0.299140 F F F
0.354810 0.500000 0.384350 F F F
0.354810 0.500000 0.469570 F F F
0.426240 0.500000 0.199720 F F F
0.426240 0.500000 0.284930 F F F
0.426240 0.500000 0.370150 F F F
0.426240 0.500000 0.455370 F F F
0.354810 0.500000 0.157110 F F F
0.354810 0.500000 0.242330 F F F
0.354810 0.500000 0.327540 F F F
0.354810 0.500000 0.412760 F F F
0.283380 0.500000 0.171310 F F F
0.283380 0.500000 0.256530 F F F
0.283380 0.500000 0.341750 F F F
0.283380 0.500000 0.426960 F F F
0.211960 0.500000 0.213920 F F F
0.211960 0.500000 0.299140 F F F
0.211960 0.500000 0.384350 F F F
0.211960 0.500000 0.469570 F F F
0.283380 0.500000 0.199720 F F F
0.283380 0.500000 0.284930 F F F
0.283380 0.500000 0.370150 F F F
0.283380 0.500000 0.455370 F F F
0.211960 0.500000 0.157110 F F F
0.211960 0.500000 0.242330 F F F
0.211960 0.500000 0.327540 F F F
0.211960 0.500000 0.412760 F F F
0.140530 0.500000 0.171310 F F F
0.140530 0.500000 0.256530 F F F
0.140530 0.500000 0.341750 F F F
0.140530 0.500000 0.426960 F F F
0.069100 0.500000 0.213920 F F F
0.069100 0.500000 0.299140 F F F
0.069100 0.500000 0.384350 F F F
0.069100 0.500000 0.469570 F F F
0.140530 0.500000 0.199720 F F F
0.140530 0.500000 0.284930 F F F
0.140530 0.500000 0.370150 F F F
0.140530 0.500000 0.455370 F F F
0.069100 0.500000 0.157110 F F F
0.069100 0.500000 0.242330 F F F
0.069100 0.500000 0.327540 F F F
0.069100 0.500000 0.412760 F F F
0.580938 0.437544 0.492979 T T T
0.532067 0.317036 0.487423 T T T
0.209085 0.332010 0.493377 T T T
0.007195 0.554305 0.531947 T T T
0.564427 0.996667 0.468550 T T T
0.804092 0.349353 0.479487 T T T
0.120768 0.695411 0.516959 T T T
0.543157 0.122301 0.468716 T T T
0.817844 0.135038 0.476138 T T T
0.809013 0.074270 0.500281 T T T
0.553472 0.919556 0.491498 T T T
0.359843 0.589757 0.518770 T T T
0.319363 0.697404 0.526734 T T T
0.797908 0.306448 0.505491 T T T
0.976066 0.589470 0.612296 T T T
0.509608 0.943894 0.513151 T T T
0.655027 0.084464 0.556163 T T T
0.234809 0.410037 0.545277 T T T
0.618923 0.928916 0.587171 T T T
0.716581 0.191415 0.502403 T T T
0.687064 0.207073 0.478762 T T T
0.398067 0.249038 0.514707 T T T
0.428866 0.034094 0.643311 T T T
0.226399 0.635301 0.660500 T T T
0.440730 0.903187 0.629153 T T T
0.425330 0.671508 0.593833 T T T
0.985268 0.796275 0.645065 T T T
0.069890 0.295172 0.562265 T T T
0.406299 0.069172 0.668128 T T T
0.996595 0.088708 0.580919 T T T
0.803273 0.726259 0.576401 T T T
0.822630 0.794788 0.634170 T T T
0.144074 0.038620 0.603257 T T T
0.016798 0.500000 0.686179 T T T
0.016798 0.500000 0.735379 T T T
0.016798 0.500000 0.784579 T T T
0.016798 0.500000 0.833779 T T T
0.016798 0.500000 0.882979 T T T
0.016798 0.500000 0.932179 T T T
0.016798 0.500000 0.981379 T T T
0.141799 0.500000 0.661579 T T T
0.141799 0.500000 0.710779 T T T
0.141799 0.500000 0.759979 T T T
0.141799 0.500000 0.809179 T T T
0.141799 0.500000 0.858379 T T T
0.141799 0.500000 0.907579 T T T
0.141799 0.500000 0.956779 T T T
0.100138 0.500000 0.686179 T T T
0.100138 0.500000 0.735379 T T T
0.100138 0.500000 0.784579 T T T
0.100138 0.500000 0.833779 T T T
0.100138 0.500000 0.882979 T T T
0.100138 0.500000 0.932179 T T T
0.100138 0.500000 0.981379 T T T
0.225139 0.500000 0.661579 T T T
0.225139 0.500000 0.710779 T T T
0.225139 0.500000 0.759979 T T T
0.225139 0.500000 0.809179 T T T
0.225139 0.500000 0.858379 T T T
0.225139 0.500000 0.907579 T T T
0.225139 0.500000 0.956779 T T T
0.266798 0.500000 0.686179 T T T
0.266798 0.500000 0.735379 T T T
0.983518 0.500000 0.001129 T T T
0.133409 0.500000 0.001129 T T T
0.233648 0.500000 0.001149 T T T
0.383409 0.500000 0.001129 T T T
0.483648 0.500000 0.001149 T T T
0.633409 0.500000 0.001129 T T T
0.733648 0.500000 0.001149 T T T
0.883409 0.500000 0.001129 T T T
0.926100 0.500000 0.134310 F F F
0.783520 0.500000 0.134310 F F F
0.640670 0.500000 0.134310 F F F
0.497810 0.500000 0.134310 F F F
0.354950 0.500000 0.134310 F F F
0.212100 0.500000 0.134310 F F F
0.068960 0.500000 0.134310 F F F
0.941995 0.275157 0.562779 T T T
0.453290 0.388773 0.501322 T T T
0.876274 0.862019 0.469999 T T T
0.430008 0.789445 0.518200 T T T
0.642179 0.252974 0.473353 T T T
0.756410 0.404588 0.560062 T T T
0.922814 0.608187 0.483100 T T T
0.053634 0.623240 0.480490 T T T
0.831645 0.598235 0.519564 T T T
0.119569 0.185745 0.568151 T T T
0.144353 0.395425 0.522981 T T T
0.536473 0.682944 0.516715 T T T
0.281183 0.557358 0.615072 T T T
0.623954 0.258159 0.563137 T T T
0.623277 0.458162 0.506054 T T T
0.970056 0.500117 0.546569 T T T
0.935782 0.665445 0.578633 T T T
0.777570 0.756917 0.555109 T T T
0.095862 0.217848 0.581555 T T T
0.336864 0.412052 0.620614 T T T
0.210593 0.464839 0.561751 T T T
0.746170 0.581688 0.653654 T T T
0.101923 0.125479 0.612467 T T T
0.643061 0.044746 0.623036 T T T
0.264575 0.163840 0.658423 T T T
0.192333 0.508170 0.601657 T T T
0.670659 0.556965 0.627176 T T T
0.587791 0.727521 0.523170 T T T
