search
1.0
17.131700 0.000000 0.000000
0.000000 10.000000 0.000000
0.000000 0.000000 50.000000
C H 
227 73 
Selective dynamics
Direct
0.451986 0.500000 0.784558 T T T
0.451986 0.500000 0.833758 T T T
0.451986 0.500000 0.882958 T T T
0.451986 0.500000 0.932158 T T T
0.451986 0.500000 0.981358 T T T
0.576986 0.500000 0.661558 T T T
0.576986 0.500000 0.710758 T T T
0.576986 0.500000 0.759958 T T T
0.576986 0.500000 0.809158 T T T
0.576986 0.500000 0.858358 T T T
0.576986 0.500000 0.907558 T T T
0.576986 0.500000 0.956758 T T T
0.535326 0.500000 0.686158 T T T
0.535326 0.500000 0.735358 T T T
0.535326 0.500000 0.784558 T T T
0.535326 0.500000 0.833758 T T T
0.535326 0.500000 0.882958 T T T
0.535326 0.500000 0.932158 T T T
0.535326 0.500000 0.981358 T T T
0.660326 0.500000 0.661558 T T T
0.660326 0.500000 0.710758 T T T
0.660326 0.500000 0.759958 T T T
0.660326 0.500000 0.809158 T T T
0.660326 0.500000 0.858358 T T T
0.660326 0.500000 0.907558 T T T
0.660326 0.500000 0.956758 T T T
0.701986 0.500000 0.686158 T T T
0.701986 0.500000 0.735358 T T T
0.701986 0.500000 0.784558 T T T
0.701986 0.500000 0.833758 T T T
0.701986 0.500000 0.882958 T T T
0.701986 0.500000 0.932158 T T T
0.701986 0.500000 0.981358 T T T
0.826986 0.500000 0.661558 T T T
0.826986 0.500000 0.710758 T T T
0.826986 0.500000 0.759958 T T T
0.826986 0.500000 0.809158 T T T
0.826986 0.500000 0.858358 T T T
0.826986 0.500000 0.907558 T T T
0.826986 0.500000 0.956758 T T T
0.785326 0.500000 0.686158 T T T
0.785326 0.500000 0.735358 T T T
0.785326 0.500000 0.784558 T T T
0.785326 0.500000 0.833758 T T T
0.785326 0.500000 0.882958 T T T
0.785326 0.500000 0.932158 T T T
0.785326 0.500000 0.981358 T T T
0.910326 0.500000 0.661558 T T T
0.910326 0.500000 0.710758 T T T
0.910326 0.500000 0.759958 T T T
0.910326 0.500000 0.809158 T T T
0.910326 0.500000 0.858358 T T T
0.910326 0.500000 0.907558 T T T
0.910326 0.500000 0.956758 T T T
0.951986 0.500000 0.686158 T T T
0.951986 0.500000 0.735358 T T T
0.951986 0.500000 0.784558 T T T
0.951986 0.500000 0.833758 T T T
0.951986 0.500000 0.882958 T T T
0.951986 0.500000 0.932158 T T T
0.951986 0.500000 0.981358 T T T
0.076986 0.500000 0.661558 T T T
0.076986 0.500000 0.710758 T T T
0.076986 0.500000 0.759958 T T T
0.076986 0.500000 0.809158 T T T
0.076986 0.500000 0.858358 T T T
0.076986 0.500000 0.907558 T T T
0.076986 0.500000 0.956758 T T T
0.035326 0.500000 0.686158 T T T
0.035326 0.500000 0.735358 T T T
0.035326 0.500000 0.784558 T T T
0.035326 0.500000 0.833758 T T T
0.035326 0.500000 0.882958 T T T
0.035326 0.500000 0.932158 T T T
0.035326 0.500000 0.981358 T T T
0.160326 0.500000 0.661558 T T T
0.160326 0.500000 0.710758 T T T
0.160326 0.500000 0.759958 T T T
0.160326 0.500000 0.809158 T T T
0.160326 0.500000 0.858358 T T T
0.160326 0.500000 0.907558 T T T
0.160326 0.500000 0.956758 T T T
0.997670 0.500000 0.171310 F F F
0.997670 0.500000 0.256530 F F F
0.997670 0.500000 0.341750 F F F
0.997670 0.500000 0.426960 F F F
0.997670 0.500000 0.199720 F F F
0.997670 0.500000 0.284930 F F F
0.997670 0.500000 0.370150 F F F
0.997670 0.500000 0.455370 F F F
0.926240 0.500000 0.213920 F F F
0.926240 0.500000 0.299140 F F F
0.926240 0.500000 0.384350 F F F
0.926240 0.500000 0.469570 F F F
0.926240 0.500000 0.157110 F F F
0.926240 0.500000 0.242330 F F F
0.926240 0.500000 0.327540 F F F
0.926240 0.500000 0.412760 F F F
0.854810 0.500000 0.171310 F F F
0.854810 0.500000 0.256530 F F F
0.854810 0.500000 0.341750 F F F
0.854810 0.500000 0.426960 F F F
0.783380 0.500000 0.213920 F F F
0.783380 0.500000 0.299140 F F F
0.783380 0.500000 0.384350 F F F
0.783380 0.500000 0.469570 F F F
0.854810 0.500000 0.199720 F F F
0.854810 0.500000 0.284930 F F F
0.854810 0.500000 0.370150 F F F
0.854810 0.500000 0.455370 F F F
0.783380 0.500000 0.157110 F F F
0.783380 0.500000 0.242330 F F F
0.783380 0.500000 0.327540 F F F
0.783380 0.500000 0.412760 F F F
0.711960 0.500000 0.171310 F F F
0.711960 0.500000 0.256530 F F F
0.711960 0.500000 0.341750 F F F
0.711960 0.500000 0.426960 F F F
0.640530 0.500000 0.213920 F F F
0.640530 0.500000 0.299140 F F F
0.640530 0.500000 0.384350 F F F
0.640530 0.500000 0.469570 F F F
0.711960 0.500000 0.199720 F F F
0.711960 0.500000 0.284930 F F F
0.711960 0.500000 0.370150 F F F
0.711960 0.500000 0.455370 F F F
0.640530 0.500000 0.157110 F F F
0.640530 0.500000 0.242330 F F F
0.640530 0.500000 0.327540 F F F
0.640530 0.500000 0.412760 F F F
0.569100 0.500000 0.171310 F F F
0.569100 0.500000 0.256530 F F F
0.569100 0.500000 0.341750 F F F
0.569100 0.500000 0.426960 F F F
0.497670 0.500000 0.213920 F F F
0.497670 0.500000 0.299140 F F F
0.497670 0.500000 0.384350 F F F
0.497670 0.500000 0.469570 F F F
0.569100 0.500000 0.199720 F F F
0.569100 0.500000 0.284930 F F F
0.569100 0.500000 0.370150 F F F
0.569100 0.500000 0.455370 F F F
0.497670 0.500000 0.157110 F F F
0.497670 0.500000 0.242330 F F F
0.497670 0.500000 0.327540 F F F
0.497670 0.500000 0.412760 F F F
0.426240 0.500000 0.171310 F F F
0.426240 0.500000 0.256530 F F F
0.426240 0.500000 0.341750 F F F
0.426240 0.500000 0.426960 F F F
0.354810 0.500000 0.213920 F F F
0.354810 0.500000 0.299140 F F F
0.354810 0.500000 0.384350 F F F
0.354810 0.500000 0.469570 F F F
0.426240 0.500000 0.199720 F F F
0.426240 0.500000 0.284930 F F F
0.426240 0.500000 0.370150 F F F
0.426240 0.500000 0.455370 F F F
0.354810 0.500000 0.157110 F F F
0.354810 0.500000 0.242330 F F F
0.354810 0.500000 0.327540 F F F
0.354810 0.500000 0.412760 F F F
0.283380 0.500000 0.171310 F F F
0.283380 0.500000 0.256530 F F F
0.283380 0.500000 0.341750 F F F
0.283380 0.500000 0.426960 F F F
0.211960 0.500000 0.213920 F F F
0.211960 0.500000 0.299140 F F F
0.211960 0.500000 0.384350 F F F
0.211960 0.500000 0.469570 F F F
0.283380 0.500000 0.199720 F F F
0.283380 0.500000 0.284930 F F F
0.283380 0.500000 0.370150 F F F
0.283380 0.500000 0.455370 F F F
0.211960 0.500000 0.157110 F F F
0.211960 0.500000 0.242330 F F F
0.211960 0.500000 0.327540 F F F
0.211960 0.500000 0.412760 F F F
0.140530 0.500000 0.171310 F F F
0.140530 0.500000 0.256530 F F F
0.140530 0.500000 0.341750 F F F
0.140530 0.500000 0.426960 F F F
0.069100 0.500000 0.213920 F F F
0.069100 0.500000 0.299140 F F F
0.069100 0.500000 0.384350 F F F
0.069100 0.500000 0.469570 F F F
0.140530 0.500000 0.199720 F F F
0.140530 0.500000 0.284930 F F F
0.140530 0.500000 0.370150 F F F
0.140530 0.500000 0.455370 F F F
0.069100 0.500000 0.157110 F F F
0.069100 0.500000 0.242330 F F F
0.069100 0.500000 0.327540 F F F
0.069100 0.500000 0.412760 F F F
0.696600 0.289170 0.503581 T T T
0.787335 0.014740 0.514198 T T T
0.190161 0.407761 0.499596 T T T
0.199748 0.610738 0.470442 T T T
0.146066 0.482566 0.482879 T T T
0.735761 0.972873 0.470000 T T T
0.744863 0.566869 0.473188 T T T
0.636597 0.466989 0.494498 T T T
0.442917 0.610696 0.482479 T T T
0.683485 0.548346 0.486194 T T T
0.374889 0.947033 0.537211 T T T
0.497334 0.445304 0.566322 T T T
0.108412 0.741024 0.570169 T T T
0.025094 0.794990 0.514252 T T T
0.076934 0.562707 0.526584 T T T
0.168335 0.058379 0.591808 T T T
0.866637 0.018576 0.553194 T T T
0.742187 0.544310 0.540727 T T T
0.390351 0.036182 0.558647 T T T
0.151526 0.061577 0.512061 T T T
0.553987 0.744534 0.493139 T T T
0.622158 0.148459 0.559906 T T T
0.785161 0.904965 0.590732 T T T
0.953496 0.303042 0.660000 T T T
0.521019 0.213631 0.625424 T T T
0.359312 0.716863 0.634194 T T T
0.434802 0.882038 0.613677 T T T
0.765599 0.242416 0.592688 T T T
0.614499 0.431273 0.656571 T T T
0.222127 0.480188 0.628652 T T T
0.698824 0.540815 0.590497 T T T
0.748867 0.594973 0.561098 T T T
0.195390 0.896237 0.614416 T T T
0.201986 0.500000 0.686158 T T T
0.201986 0.500000 0.735358 T T T
0.201986 0.500000 0.784558 T T T
0.201986 0.500000 0.833758 T T T
0.201986 0.500000 0.882958 T T T
0.201986 0.500000 0.932158 T T T
0.201986 0.500000 0.981358 T T T
0.326986 0.500000 0.661558 T T T
0.326986 0.500000 0.710758 T T T
0.326986 0.500000 0.759958 T T T
0.326986 0.500000 0.809158 T T T
0.326986 0.500000 0.858358 T T T
0.326986 0.500000 0.907558 T T T
0.326986 0.500000 0.956758 T T T
0.285326 0.500000 0.686158 T T T
0.285326 0.500000 0.735358 T T T
0.285326 0.500000 0.784558 T T T
0.285326 0.500000 0.833758 T T T
0.285326 0.500000 0.882958 T T T
0.285326 0.500000 0.932158 T T T
0.285326 0.500000 0.981358 T T T
0.410326 0.500000 0.661558 T T T
0.410326 0.500000 0.710758 T T T
0.410326 0.500000 0.759958 T T T
0.410326 0.500000 0.809158 T T T
0.410326 0.500000 0.858358 T T T
0.410326 0.500000 0.907558 T T T
0.410326 0.500000 0.956758 T T T
0.451986 0.500000 0.686158 T T T
0.451986 0.500000 0.735358 T T T
0.168706 0.500000 0.001108 T T T
0.318596 0.500000 0.001108 T T T
0.418836 0.500000 0.001128 T T T
0.568596 0.500000 0.001108 T T T
0.668836 0.500000 0.001128 T T T
0.818596 0.500000 0.001108 T T T
0.918836 0.500000 0.001128 T T T
0.068596 0.500000 0.001108 T T T
0.926100 0.500000 0.134310 F F F
0.783520 0.500000 0.134310 F F F
0.640670 0.500000 0.134310 F F F
0.497810 0.500000 0.134310 F F F
0.354950 0.500000 0.134310 F F F
0.212100 0.500000 0.134310 F F F
0.068960 0.500000 0.134310 F F F
0.279020 0.147772 0.554641 T T T
0.530735 0.234726 0.547874 T T T
0.255343 0.799559 0.496795 T T T
0.331074 0.594905 0.496676 T T T
0.386387 0.674717 0.554647 T T T
0.718988 0.765412 0.534994 T T T
0.034870 0.755077 0.477799 T T T
0.441380 0.884875 0.470000 T T T
0.128537 0.528222 0.470461 T T T
0.914567 0.065036 0.546030 T T T
0.344138 0.461326 0.532122 T T T
0.158468 0.594143 0.470096 T T T
0.277386 0.976028 0.509821 T T T
0.561302 0.058771 0.551329 T T T
0.725196 0.347069 0.559308 T T T
0.349620 0.057857 0.497512 T T T
0.452174 0.240035 0.486431 T T T
0.001664 0.947866 0.561488 T T T
0.338488 0.032006 0.593086 T T T
0.993247 0.450767 0.616915 T T T
0.481578 0.506041 0.588608 T T T
0.671364 0.479114 0.590169 T T T
0.273653 0.456288 0.572035 T T T
0.200947 0.730193 0.589998 T T T
0.313317 0.697397 0.597385 T T T
0.338316 0.024975 0.568552 T T T
0.957493 0.116683 0.590458 T T T
0.107162 0.593263 0.651555 T T T
