search
1.0
17.131700 0.000000 0.000000
0.000000 10.000000 0.000000
0.000000 0.000000 50.000000
C H 
227 73 
Selective dynamics
Direct
0.137239 0.500000 0.839261 T T T
0.137239 0.500000 0.888461 T T T
0.137239 0.500000 0.937661 T T T
0.137239 0.500000 0.986861 T T T
0.137239 0.500000 0.036061 T T T
0.262239 0.500000 0.716261 T T T
0.262239 0.500000 0.765461 T T T
0.262239 0.500000 0.814661 T T T
0.262239 0.500000 0.863861 T T T
0.262239 0.500000 0.913061 T T T
0.262239 0.500000 0.962261 T T T
0.262239 0.500000 0.011461 T T T
0.220579 0.500000 0.740861 T T T
0.220579 0.500000 0.790061 T T T
0.220579 0.500000 0.839261 T T T
0.220579 0.500000 0.888461 T T T
0.220579 0.500000 0.937661 T T T
0.220579 0.500000 0.986861 T T T
0.220579 0.500000 0.036061 T T T
0.345579 0.500000 0.716261 T T T
0.345579 0.500000 0.765461 T T T
0.345579 0.500000 0.814661 T T T
0.345579 0.500000 0.863861 T T T
0.345579 0.500000 0.913061 T T T
0.345579 0.500000 0.962261 T T T
0.345579 0.500000 0.011461 T T T
0.387239 0.500000 0.740861 T T T
0.387239 0.500000 0.790061 T T T
0.387239 0.500000 0.839261 T T T
0.387239 0.500000 0.888461 T T T
0.387239 0.500000 0.937661 T T T
0.387239 0.500000 0.986861 T T T
0.387239 0.500000 0.036061 T T T
0.512239 0.500000 0.716261 T T T
0.512239 0.500000 0.765461 T T T
0.512239 0.500000 0.814661 T T T
0.512239 0.500000 0.863861 T T T
0.512239 0.500000 0.913061 T T T
0.512239 0.500000 0.962261 T T T
0.512239 0.500000 0.011461 T T T
0.470579 0.500000 0.740861 T T T
0.470579 0.500000 0.790061 T T T
0.470579 0.500000 0.839261 T T T
0.470579 0.500000 0.888461 T T T
0.470579 0.500000 0.937661 T T T
0.470579 0.500000 0.986861 T T T
0.470579 0.500000 0.036061 T T T
0.595579 0.500000 0.716261 T T T
0.595579 0.500000 0.765461 T T T
0.595579 0.500000 0.814661 T T T
0.595579 0.500000 0.863861 T T T
0.595579 0.500000 0.913061 T T T
0.595579 0.500000 0.962261 T T T
0.595579 0.500000 0.011461 T T T
0.637239 0.500000 0.740861 T T T
0.637239 0.500000 0.790061 T T T
0.637239 0.500000 0.839261 T T T
0.637239 0.500000 0.888461 T T T
0.637239 0.500000 0.937661 T T T
0.637239 0.500000 0.986861 T T T
0.637239 0.500000 0.036061 T T T
0.762239 0.500000 0.716261 T T T
0.762239 0.500000 0.765461 T T T
0.762239 0.500000 0.814661 T T T
0.762239 0.500000 0.863861 T T T
0.762239 0.500000 0.913061 T T T
0.762239 0.500000 0.962261 T T T
0.762239 0.500000 0.011461 T T T
0.720579 0.500000 0.740861 T T T
0.720579 0.500000 0.790061 T T T
0.720579 0.500000 0.839261 T T T
0.720579 0.500000 0.888461 T T T
0.720579 0.500000 0.937661 T T T
0.720579 0.500000 0.986861 T T T
0.720579 0.500000 0.036061 T T T
0.845579 0.500000 0.716261 T T T
0.845579 0.500000 0.765461 T T T
0.845579 0.500000 0.814661 T T T
0.845579 0.500000 0.863861 T T T
0.845579 0.500000 0.913061 T T T
0.845579 0.500000 0.962261 T T T
0.845579 0.500000 0.011461 T T T
0.997670 0.500000 0.171310 F F F
0.997670 0.500000 0.256530 F F F
0.997670 0.500000 0.341750 F F F
0.997670 0.500000 0.426960 F F F
0.997670 0.500000 0.199720 F F F
0.997670 0.500000 0.284930 F F F
0.997670 0.500000 0.370150 F F F
0.997670 0.500000 0.455370 F F F
0.926240 0.500000 0.213920 F F F
0.926240 0.500000 0.299140 F F F
0.926240 0.500000 0.384350 F F F
0.926240 0.500000 0.469570 F F F
0.926240 0.500000 0.157110 F F F
0.926240 0.500000 0.242330 F F F
0.926240 0.500000 0.327540 F F F
0.926240 0.500000 0.412760 F F F
0.854810 0.500000 0.171310 F F F
0.854810 0.500000 0.256530 F F F
0.854810 0.500000 0.341750 F F F
0.854810 0.500000 0.426960 F F F
0.783380 0.500000 0.213920 F F F
0.783380 0.500000 0.299140 F F F
0.783380 0.500000 0.384350 F F F
0.783380 0.500000 0.469570 F F F
0.854810 0.500000 0.199720 F F F
0.854810 0.500000 0.284930 F F F
0.854810 0.500000 0.370150 F F F
0.854810 0.500000 0.455370 F F F
0.783380 0.500000 0.157110 F F F
0.783380 0.500000 0.242330 F F F
0.783380 0.500000 0.327540 F F F
0.783380 0.500000 0.412760 F F F
0.711960 0.500000 0.171310 F F F
0.711960 0.500000 0.256530 F F F
0.711960 0.500000 0.341750 F F F
0.711960 0.500000 0.426960 F F F
0.640530 0.500000 0.213920 F F F
0.640530 0.500000 0.299140 F F F
0.640530 0.500000 0.384350 F F F
0.640530 0.500000 0.469570 F F F
0.711960 0.500000 0.199720 F F F
0.711960 0.500000 0.284930 F F F
0.711960 0.500000 0.370150 F F F
0.711960 0.500000 0.455370 F F F
0.640530 0.500000 0.157110 F F F
0.640530 0.500000 0.242330 F F F
0.640530 0.500000 0.327540 F F F
0.640530 0.500000 0.412760 F F F
0.569100 0.500000 0.171310 F F F
0.569100 0.500000 0.256530 F F F
0.569100 0.500000 0.341750 F F F
0.569100 0.500000 0.426960 F F F
0.497670 0.500000 0.213920 F F F
0.497670 0.500000 0.299140 F F F
0.497670 0.500000 0.384350 F F F
0.497670 0.500000 0.469570 F F F
0.569100 0.500000 0.199720 F F F
0.569100 0.500000 0.284930 F F F
0.569100 0.500000 0.370150 F F F
0.569100 0.500000 0.455370 F F F
0.497670 0.500000 0.157110 F F F
0.497670 0.500000 0.242330 F F F
0.497670 0.500000 0.327540 F F F
0.497670 0.500000 0.412760 F F F
0.426240 0.500000 0.171310 F F F
0.426240 0.500000 0.256530 F F F
0.426240 0.500000 0.341750 F F F
0.426240 0.500000 0.426960 F F F
0.354810 0.500000 0.213920 F F F
0.354810 0.500000 0.299140 F F F
0.354810 0.500000 0.384350 F F F
0.354810 0.500000 0.469570 F F F
0.426240 0.500000 0.199720 F F F
0.426240 0.500000 0.284930 F F F
0.426240 0.500000 0.370150 F F F
0.426240 0.500000 0.455370 F F F
0.354810 0.500000 0.157110 F F F
0.354810 0.500000 0.242330 F F F
0.354810 0.500000 0.327540 F F F
0.354810 0.500000 0.412760 F F F
0.283380 0.500000 0.171310 F F F
0.283380 0.500000 0.256530 F F F
0.283380 0.500000 0.341750 F F F
0.283380 0.500000 0.426960 F F F
0.211960 0.500000 0.213920 F F F
0.211960 0.500000 0.299140 F F F
0.211960 0.500000 0.384350 F F F
0.211960 0.500000 0.469570 F F F
0.283380 0.500000 0.199720 F F F
0.283380 0.500000 0.284930 F F F
0.283380 0.500000 0.370150 F F F
0.283380 0.500000 0.455370 F F F
0.211960 0.500000 0.157110 F F F
0.211960 0.500000 0.242330 F F F
0.211960 0.500000 0.327540 F F F
0.211960 0.500000 0.412760 F F F
0.140530 0.500000 0.171310 F F F
0.140530 0.500000 0.256530 F F F
0.140530 0.500000 0.341750 F F F
0.140530 0.500000 0.426960 F F F
0.069100 0.500000 0.213920 F F F
0.069100 0.500000 0.299140 F F F
0.069100 0.500000 0.384350 F F F
0.069100 0.500000 0.469570 F F F
0.140530 0.500000 0.199720 F F F
0.140530 0.500000 0.284930 F F F
0.140530 0.500000 0.370150 F F F
0.140530 0.500000 0.455370 F F F
0.069100 0.500000 0.157110 F F F
0.069100 0.500000 0.242330 F F F
0.069100 0.500000 0.327540 F F F
0.069100 0.500000 0.412760 F F F
0.604604 0.033449 0.497639 T T T
0.326296 0.273712 0.539248 T T T
0.076533 0.398930 0.487955 T T T
0.606230 0.405266 0.534082 T T T
0.495279 0.975454 0.521693 T T T
0.826200 0.161336 0.556305 T T T
0.832098 0.474952 0.517752 T T T
0.615958 0.736788 0.495167 T T T
0.994314 0.758045 0.490169 T T T
0.923607 0.892732 0.544090 T T T
0.791512 0.893386 0.503120 T T T
0.105642 0.165992 0.599212 T T T
0.288183 0.184782 0.624310 T T T
0.172246 0.206865 0.609633 T T T
0.268146 0.731654 0.608908 T T T
0.339284 0.859935 0.581876 T T T
0.912548 0.221495 0.618090 T T T
0.861043 0.246445 0.572828 T T T
0.951180 0.447807 0.562545 T T T
0.609998 0.793514 0.612112 T T T
0.674393 0.824131 0.624320 T T T
0.710998 0.937340 0.573030 T T T
0.698783 0.123483 0.639184 T T T
0.654326 0.414144 0.634798 T T T
0.558017 0.714696 0.676344 T T T
0.225433 0.803470 0.654009 T T T
0.548570 0.934521 0.692849 T T T
0.833702 0.189496 0.705979 T T T
0.970567 0.218730 0.634819 T T T
0.845104 0.270225 0.685330 T T T
0.920306 0.447857 0.651840 T T T
0.968506 0.616580 0.703928 T T T
0.914575 0.920405 0.675351 T T T
0.887239 0.500000 0.740861 T T T
0.887239 0.500000 0.790061 T T T
0.887239 0.500000 0.839261 T T T
0.887239 0.500000 0.888461 T T T
0.887239 0.500000 0.937661 T T T
0.887239 0.500000 0.986861 T T T
0.887239 0.500000 0.036061 T T T
0.012239 0.500000 0.716261 T T T
0.012239 0.500000 0.765461 T T T
0.012239 0.500000 0.814661 T T T
0.012239 0.500000 0.863861 T T T
0.012239 0.500000 0.913061 T T T
0.012239 0.500000 0.962261 T T T
0.012239 0.500000 0.011461 T T T
0.970579 0.500000 0.740861 T T T
0.970579 0.500000 0.790061 T T T
0.970579 0.500000 0.839261 T T T
0.970579 0.500000 0.888461 T T T
0.970579 0.500000 0.937661 T T T
0.970579 0.500000 0.986861 T T T
0.970579 0.500000 0.036061 T T T
0.095579 0.500000 0.716261 T T T
0.095579 0.500000 0.765461 T T T
0.095579 0.500000 0.814661 T T T
0.095579 0.500000 0.863861 T T T
0.095579 0.500000 0.913061 T T T
0.095579 0.500000 0.962261 T T T
0.095579 0.500000 0.011461 T T T
0.137239 0.500000 0.740861 T T T
0.137239 0.500000 0.790061 T T T
0.853959 0.500000 0.055811 T T T
0.003849 0.500000 0.055811 T T T
0.104089 0.500000 0.055831 T T T
0.253849 0.500000 0.055811 T T T
0.354089 0.500000 0.055831 T T T
0.503849 0.500000 0.055811 T T T
0.604089 0.500000 0.055831 T T T
0.753849 0.500000 0.055811 T T T
0.926100 0.500000 0.134310 F F F
0.783520 0.500000 0.134310 F F F
0.640670 0.500000 0.134310 F F F
0.497810 0.500000 0.134310 F F F
0.354950 0.500000 0.134310 F F F
0.212100 0.500000 0.134310 F F F
0.068960 0.500000 0.134310 F F F
0.100788 0.192675 0.511690 T T T
0.107834 0.258368 0.526639 T T T
0.187751 0.337987 0.493351 T T T
0.150110 0.670211 0.487553 T T T
0.868522 0.082658 0.493683 T T T
0.735719 0.255707 0.529930 T T T
0.424286 0.501589 0.557980 T T T
0.531090 0.581886 0.608135 T T T
0.771622 0.940451 0.579606 T T T
0.287975 0.323174 0.624765 T T T
0.263213 0.324435 0.645505 T T T
0.082440 0.415155 0.660351 T T T
0.341215 0.951866 0.645674 T T T
0.878709 0.151297 0.657101 T T T
0.405010 0.280341 0.653419 T T T
0.514246 0.687690 0.659798 T T T
0.837541 0.859041 0.652502 T T T
0.554919 0.978295 0.609408 T T T
0.219970 0.128958 0.667365 T T T
0.338183 0.187511 0.676055 T T T
0.166276 0.404601 0.693708 T T T
0.071540 0.468063 0.672593 T T T
0.000778 0.960510 0.707828 T T T
0.890734 0.022134 0.699866 T T T
0.650870 0.552204 0.676649 T T T
0.370607 0.657906 0.660821 T T T
0.343549 0.677448 0.703845 T T T
0.937066 0.693145 0.662034 T T T
