search
1.0
17.131700 0.000000 0.000000
0.000000 10.000000 0.000000
0.000000 0.000000 50.000000
C H 
227 73 
Selective dynamics
Direct
0.249657 0.500000 0.787479 T T T
0.249657 0.500000 0.836679 T T T
0.249657 0.500000 0.885879 T T T
0.249657 0.500000 0.935079 T T T
0.249657 0.500000 0.984279 T T T
0.374657 0.500000 0.664479 T T T
0.374657 0.500000 0.713679 T T T
0.374657 0.500000 0.762879 T T T
0.374657 0.500000 0.812079 T T T
0.374657 0.500000 0.861279 T T T
0.374657 0.500000 0.910479 T T T
0.374657 0.500000 0.959679 T T T
0.332997 0.500000 0.689079 T T T
0.332997 0.500000 0.738279 T T T
0.332997 0.500000 0.787479 T T T
0.332997 0.500000 0.836679 T T T
0.332997 0.500000 0.885879 T T T
0.332997 0.500000 0.935079 T T T
0.332997 0.500000 0.984279 T T T
0.457997 0.500000 0.664479 T T T
0.457997 0.500000 0.713679 T T T
0.457997 0.500000 0.762879 T T T
0.457997 0.500000 0.812079 T T T
0.457997 0.500000 0.861279 T T T
0.457997 0.500000 0.910479 T T T
0.457997 0.500000 0.959679 T T T
0.499657 0.500000 0.689079 T T T
0.499657 0.500000 0.738279 T T T
0.499657 0.500000 0.787479 T T T
0.499657 0.500000 0.836679 T T T
0.499657 0.500000 0.885879 T T T
0.499657 0.500000 0.935079 T T T
0.499657 0.500000 0.984279 T T T
0.624657 0.500000 0.664479 T T T
0.624657 0.500000 0.713679 T T T
0.624657 0.500000 0.762879 T T T
0.624657 0.500000 0.812079 T T T
0.624657 0.500000 0.861279 T T T
0.624657 0.500000 0.910479 T T T
0.624657 0.500000 0.959679 T T T
0.582997 0.500000 0.689079 T T T
0.582997 0.500000 0.738279 T T T
0.582997 0.500000 0.787479 T T T
0.582997 0.500000 0.836679 T T T
0.582997 0.500000 0.885879 T T T
0.582997 0.500000 0.935079 T T T
0.582997 0.500000 0.984279 T T T
0.707997 0.500000 0.664479 T T T
0.707997 0.500000 0.713679 T T T
0.707997 0.500000 0.762879 T T T
0.707997 0.500000 0.812079 T T T
0.707997 0.500000 0.861279 T T T
0.707997 0.500000 0.910479 T T T
0.707997 0.500000 0.959679 T T T
0.749657 0.500000 0.689079 T T T
0.749657 0.500000 0.738279 T T T
0.749657 0.500000 0.787479 T T T
0.749657 0.500000 0.836679 T T T
0.749657 0.500000 0.885879 T T T
0.749657 0.500000 0.935079 T T T
0.749657 0.500000 0.984279 T T T
0.874657 0.500000 0.664479 T T T
0.874657 0.500000 0.713679 T T T
0.874657 0.500000 0.762879 T T T
0.874657 0.500000 0.812079 T T T
0.874657 0.500000 0.861279 T T T
0.874657 0.500000 0.910479 T T T
0.874657 0.500000 0.959679 T T T
0.832997 0.500000 0.689079 T T T
0.832997 0.500000 0.738279 T T T
0.832997 0.500000 0.787479 T T T
0.832997 0.500000 0.836679 T T T
0.832997 0.500000 0.885879 T T T
0.832997 0.500000 0.935079 T T T
0.832997 0.500000 0.984279 T T T
0.957997 0.500000 0.664479 T T T
0.957997 0.500000 0.713679 T T T
0.957997 0.500000 0.762879 T T T
0.957997 0.500000 0.812079 T T T
0.957997 0.500000 0.861279 T T T
0.957997 0.500000 0.910479 T T T
0.957997 0.500000 0.959679 T T T
0.997670 0.500000 0.171310 F F F
0.997670 0.500000 0.256530 F F F
0.997670 0.500000 0.341750 F F F
0.997670 0.500000 0.426960 F F F
0.997670 0.500000 0.199720 F F F
0.997670 0.500000 0.284930 F F F
0.997670 0.500000 0.370150 F F F
0.997670 0.500000 0.455370 F F F
0.926240 0.500000 0.213920 F F F
0.926240 0.500000 0.299140 F F F
0.926240 0.500000 0.384350 F F F
0.926240 0.500000 0.469570 F F F
0.926240 0.500000 0.157110 F F F
0.926240 0.500000 0.242330 F F F
0.926240 0.500000 0.327540 F F F
0.926240 0.500000 0.412760 F F F
0.854810 0.500000 0.171310 F F F
0.854810 0.500000 0.256530 F F F
0.854810 0.500000 0.341750 F F F
0.854810 0.500000 0.426960 F F F
0.783380 0.500000 0.213920 F F F
0.783380 0.500000 0.299140 F F F
0.783380 0.500000 0.384350 F F F
0.783380 0.500000 0.469570 F F F
0.854810 0.500000 0.199720 F F F
0.854810 0.500000 0.284930 F F F
0.854810 0.500000 0.370150 F F F
0.854810 0.500000 0.455370 F F F
0.783380 0.500000 0.157110 F F F
0.783380 0.500000 0.242330 F F F
0.783380 0.500000 0.327540 F F F
0.783380 0.500000 0.412760 F F F
0.711960 0.500000 0.171310 F F F
0.711960 0.500000 0.256530 F F F
0.711960 0.500000 0.341750 F F F
0.711960 0.500000 0.426960 F F F
0.640530 0.500000 0.213920 F F F
0.640530 0.500000 0.299140 F F F
0.640530 0.500000 0.384350 F F F
0.640530 0.500000 0.469570 F F F
0.711960 0.500000 0.199720 F F F
0.711960 0.500000 0.284930 F F F
0.711960 0.500000 0.370150 F F F
0.711960 0.500000 0.455370 F F F
0.640530 0.500000 0.157110 F F F
0.640530 0.500000 0.242330 F F F
0.640530 0.500000 0.327540 F F F
0.640530 0.500000 0.412760 F F F
0.569100 0.500000 0.171310 F F F
0.569100 0.500000 0.256530 F F F
0.569100 0.500000 0.341750 F F F
0.569100 0.500000 0.426960 F F F
0.497670 0.500000 0.213920 F F F
0.497670 0.500000 0.299140 F F F
0.497670 0.500000 0.384350 F F F
0.497670 0.500000 0.469570 F F F
0.569100 0.500000 0.199720 F F F
0.569100 0.500000 0.284930 F F F
0.569100 0.500000 0.370150 F F F
0.569100 0.500000 0.455370 F F F
0.497670 0.500000 0.157110 F F F
0.497670 0.500000 0.242330 F F F
0.497670 0.500000 0.327540 F F F
0.497670 0.500000 0.412760 F F F
0.426240 0.500000 0.171310 F F F
0.426240 0.500000 0.256530 F F F
0.426240 0.500000 0.341750 F F F
0.426240 0.500000 0.426960 F F F
0.354810 0.500000 0.213920 F F F
0.354810 0.500000 0.299140 F F F
0.354810 0.500000 0.384350 F F F
0.354810 0.500000 0.469570 F F F
0.426240 0.500000 0.199720 F F F
0.426240 0.500000 0.284930 F F F
0.426240 0.500000 0.370150 F F F
0.426240 0.500000 0.455370 F F F
0.354810 0.500000 0.157110 F F F
0.354810 0.500000 0.242330 F F F
0.354810 0.500000 0.327540 F F F
0.354810 0.500000 0.412760 F F F
0.283380 0.500000 0.171310 F F F
0.283380 0.500000 0.256530 F F F
0.283380 0.500000 0.341750 F F F
0.283380 0.500000 0.426960 F F F
0.211960 0.500000 0.213920 F F F
0.211960 0.500000 0.299140 F F F
0.211960 0.500000 0.384350 F F F
0.211960 0.500000 0.469570 F F F
0.283380 0.500000 0.199720 F F F
0.283380 0.500000 0.284930 F F F
0.283380 0.500000 0.370150 F F F
0.283380 0.500000 0.455370 F F F
0.211960 0.500000 0.157110 F F F
0.211960 0.500000 0.242330 F F F
0.211960 0.500000 0.327540 F F F
0.211960 0.500000 0.412760 F F F
0.140530 0.500000 0.171310 F F F
0.140530 0.500000 0.256530 F F F
0.140530 0.500000 0.341750 F F F
0.140530 0.500000 0.426960 F F F
0.069100 0.500000 0.213920 F F F
0.069100 0.500000 0.299140 F F F
0.069100 0.500000 0.384350 F F F
0.069100 0.500000 0.469570 F F F
0.140530 0.500000 0.199720 F F F
0.140530 0.500000 0.284930 F F F
0.140530 0.500000 0.370150 F F F
0.140530 0.500000 0.455370 F F F
0.069100 0.500000 0.157110 F F F
0.069100 0.500000 0.242330 F F F
0.069100 0.500000 0.327540 F F F
0.069100 0.500000 0.412760 F F F
0.506719 0.122301 0.510811 T T T
0.426593 0.344832 0.514857 T T T
0.416758 0.594584 0.504413 T T T
0.059317 0.770970 0.514804 T T T
0.276321 0.884500 0.469960 T T T
0.733520 0.113426 0.504166 T T T
0.663369 0.080656 0.495725 T T T
0.289344 0.437544 0.490718 T T T
0.766507 0.649453 0.511517 T T T
0.877873 0.780619 0.486974 T T T
0.605923 0.902362 0.513423 T T T
0.876378 0.095369 0.596478 T T T
0.944660 0.353882 0.606873 T T T
0.926300 0.226971 0.485834 T T T
0.699737 0.520886 0.565931 T T T
0.008703 0.841419 0.501624 T T T
0.297644 0.172830 0.519076 T T T
0.620901 0.544310 0.554568 T T T
0.575075 0.524842 0.533244 T T T
0.746548 0.631094 0.582969 T T T
0.390873 0.756141 0.505730 T T T
0.146209 0.943894 0.540260 T T T
0.248940 0.760736 0.644159 T T T
0.381350 0.931705 0.644080 T T T
0.523288 0.178177 0.663846 T T T
0.071434 0.805499 0.585132 T T T
0.380408 0.961654 0.588063 T T T
0.388585 0.307951 0.655852 T T T
0.819071 0.607716 0.628129 T T T
0.713987 0.701718 0.558121 T T T
0.989185 0.665348 0.617448 T T T
0.840089 0.997495 0.579293 T T T
0.461343 0.965522 0.631605 T T T
0.999657 0.500000 0.689079 T T T
0.999657 0.500000 0.738279 T T T
0.999657 0.500000 0.787479 T T T
0.999657 0.500000 0.836679 T T T
0.999657 0.500000 0.885879 T T T
0.999657 0.500000 0.935079 T T T
0.999657 0.500000 0.984279 T T T
0.124657 0.500000 0.664479 T T T
0.124657 0.500000 0.713679 T T T
0.124657 0.500000 0.762879 T T T
0.124657 0.500000 0.812079 T T T
0.124657 0.500000 0.861279 T T T
0.124657 0.500000 0.910479 T T T
0.124657 0.500000 0.959679 T T T
0.082997 0.500000 0.689079 T T T
0.082997 0.500000 0.738279 T T T
0.082997 0.500000 0.787479 T T T
0.082997 0.500000 0.836679 T T T
0.082997 0.500000 0.885879 T T T
0.082997 0.500000 0.935079 T T T
0.082997 0.500000 0.984279 T T T
0.207997 0.500000 0.664479 T T T
0.207997 0.500000 0.713679 T T T
0.207997 0.500000 0.762879 T T T
0.207997 0.500000 0.812079 T T T
0.207997 0.500000 0.861279 T T T
0.207997 0.500000 0.910479 T T T
0.207997 0.500000 0.959679 T T T
0.249657 0.500000 0.689079 T T T
0.249657 0.500000 0.738279 T T T
0.966377 0.500000 0.004029 T T T
0.116267 0.500000 0.004029 T T T
0.216507 0.500000 0.004049 T T T
0.366267 0.500000 0.004029 T T T
0.466507 0.500000 0.004049 T T T
0.616267 0.500000 0.004029 T T T
0.716507 0.500000 0.004049 T T T
0.866267 0.500000 0.004029 T T T
0.926100 0.500000 0.134310 F F F
0.783520 0.500000 0.134310 F F F
0.640670 0.500000 0.134310 F F F
0.497810 0.500000 0.134310 F F F
0.354950 0.500000 0.134310 F F F
0.212100 0.500000 0.134310 F F F
0.068960 0.500000 0.134310 F F F
0.258877 0.087115 0.504993 T T T
0.891218 0.207148 0.468174 T T T
0.412484 0.875976 0.500528 T T T
0.443784 0.862019 0.468291 T T T
0.714964 0.372766 0.539460 T T T
0.570841 0.479102 0.478443 T T T
0.922420 0.501978 0.490481 T T T
0.774144 0.623240 0.469503 T T T
0.898484 0.874896 0.521290 T T T
0.061322 0.930557 0.577592 T T T
0.279639 0.395425 0.537193 T T T
0.967578 0.254035 0.553557 T T T
0.085562 0.925177 0.539632 T T T
0.555122 0.111095 0.551577 T T T
0.756404 0.243687 0.501320 T T T
0.851563 0.506548 0.598353 T T T
0.333299 0.584880 0.568993 T T T
0.868736 0.756917 0.552102 T T T
0.468297 0.011758 0.649858 T T T
0.010674 0.405366 0.661687 T T T
0.051333 0.320480 0.588649 T T T
0.416336 0.418445 0.660460 T T T
0.486634 0.531413 0.603703 T T T
0.578230 0.062693 0.558013 T T T
0.842267 0.274995 0.572588 T T T
0.878407 0.347249 0.605508 T T T
0.960422 0.557827 0.623430 T T T
0.617414 0.572390 0.612785 T T T
