search
1.0
17.131700 0.000000 0.000000
0.000000 10.000000 0.000000
0.000000 0.000000 50.000000
C H 
227 73 
Selective dynamics
Direct
0.188686 0.500000 0.826720 T T T
0.188686 0.500000 0.875920 T T T
0.188686 0.500000 0.925120 T T T
0.188686 0.500000 0.974320 T T T
0.188686 0.500000 0.023520 T T T
0.313687 0.500000 0.703720 T T T
0.313687 0.500000 0.752920 T T T
0.313687 0.500000 0.802120 T T T
0.313687 0.500000 0.851320 T T T
0.313687 0.500000 0.900520 T T T
0.313687 0.500000 0.949720 T T T
0.313687 0.500000 0.998920 T T T
0.272026 0.500000 0.728320 T T T
0.272026 0.500000 0.777520 T T T
0.272026 0.500000 0.826720 T T T
0.272026 0.500000 0.875920 T T T
0.272026 0.500000 0.925120 T T T
0.272026 0.500000 0.974320 T T T
0.272026 0.500000 0.023520 T T T
0.397027 0.500000 0.703720 T T T
0.397027 0.500000 0.752920 T T T
0.397027 0.500000 0.802120 T T T
0.397027 0.500000 0.851320 T T T
0.397027 0.500000 0.900520 T T T
0.397027 0.500000 0.949720 T T T
0.397027 0.500000 0.998920 T T T
0.438686 0.500000 0.728320 T T T
0.438686 0.500000 0.777520 T T T
0.438686 0.500000 0.826720 T T T
0.438686 0.500000 0.875920 T T T
0.438686 0.500000 0.925120 T T T
0.438686 0.500000 0.974320 T T T
0.438686 0.500000 0.023520 T T T
0.563687 0.500000 0.703720 T T T
0.563687 0.500000 0.752920 T T T
0.563687 0.500000 0.802120 T T T
0.563687 0.500000 0.851320 T T T
0.563687 0.500000 0.900520 T T T
0.563687 0.500000 0.949720 T T T
0.563687 0.500000 0.998920 T T T
0.522026 0.500000 0.728320 T T T
0.522026 0.500000 0.777520 T T T
0.522026 0.500000 0.826720 T T T
0.522026 0.500000 0.875920 T T T
0.522026 0.500000 0.925120 T T T
0.522026 0.500000 0.974320 T T T
0.522026 0.500000 0.023520 T T T
0.647027 0.500000 0.703720 T T T
0.647027 0.500000 0.752920 T T T
0.647027 0.500000 0.802120 T T T
0.647027 0.500000 0.851320 T T T
0.647027 0.500000 0.900520 T T T
0.647027 0.500000 0.949720 T T T
0.647027 0.500000 0.998920 T T T
0.688686 0.500000 0.728320 T T T
0.688686 0.500000 0.777520 T T T
0.688686 0.500000 0.826720 T T T
0.688686 0.500000 0.875920 T T T
0.688686 0.500000 0.925120 T T T
0.688686 0.500000 0.974320 T T T
0.688686 0.500000 0.023520 T T T
0.813687 0.500000 0.703720 T T T
0.813687 0.500000 0.752920 T T T
0.813687 0.500000 0.802120 T T T
0.813687 0.500000 0.851320 T T T
0.813687 0.500000 0.900520 T T T
0.813687 0.500000 0.949720 T T T
0.813687 0.500000 0.998920 T T T
0.772026 0.500000 0.728320 T T T
0.772026 0.500000 0.777520 T T T
0.772026 0.500000 0.826720 T T T
0.772026 0.500000 0.875920 T T T
0.772026 0.500000 0.925120 T T T
0.772026 0.500000 0.974320 T T T
0.772026 0.500000 0.023520 T T T
0.897027 0.500000 0.703720 T T T
0.897027 0.500000 0.752920 T T T
0.897027 0.500000 0.802120 T T T
0.897027 0.500000 0.851320 T T T
0.897027 0.500000 0.900520 T T T
0.897027 0.500000 0.949720 T T T
0.897027 0.500000 0.998920 T T T
0.997670 0.500000 0.171310 F F F
0.997670 0.500000 0.256530 F F F
0.997670 0.500000 0.341750 F F F
0.997670 0.500000 0.426960 F F F
0.997670 0.500000 0.199720 F F F
0.997670 0.500000 0.284930 F F F
0.997670 0.500000 0.370150 F F F
0.997670 0.500000 0.455370 F F F
0.926240 0.500000 0.213920 F F F
0.926240 0.500000 0.299140 F F F
0.926240 0.500000 0.384350 F F F
0.926240 0.500000 0.469570 F F F
0.926240 0.500000 0.157110 F F F
0.926240 0.500000 0.242330 F F F
0.926240 0.500000 0.327540 F F F
0.926240 0.500000 0.412760 F F F
0.854810 0.500000 0.171310 F F F
0.854810 0.500000 0.256530 F F F
0.854810 0.500000 0.341750 F F F
0.854810 0.500000 0.426960 F F F
0.783380 0.500000 0.213920 F F F
0.783380 0.500000 0.299140 F F F
0.783380 0.500000 0.384350 F F F
0.783380 0.500000 0.469570 F F F
0.854810 0.500000 0.199720 F F F
0.854810 0.500000 0.284930 F F F
0.854810 0.500000 0.370150 F F F
0.854810 0.500000 0.455370 F F F
0.783380 0.500000 0.157110 F F F
0.783380 0.500000 0.242330 F F F
0.783380 0.500000 0.327540 F F F
0.783380 0.500000 0.412760 F F F
0.711960 0.500000 0.171310 F F F
0.711960 0.500000 0.256530 F F F
0.711960 0.500000 0.341750 F F F
0.711960 0.500000 0.426960 F F F
0.640530 0.500000 0.213920 F F F
0.640530 0.500000 0.299140 F F F
0.640530 0.500000 0.384350 F F F
0.640530 0.500000 0.469570 F F F
0.711960 0.500000 0.199720 F F F
0.711960 0.500000 0.284930 F F F
0.711960 0.500000 0.370150 F F F
0.711960 0.500000 0.455370 F F F
0.640530 0.500000 0.157110 F F F
0.640530 0.500000 0.242330 F F F
0.640530 0.500000 0.327540 F F F
0.640530 0.500000 0.412760 F F F
0.569100 0.500000 0.171310 F F F
0.569100 0.500000 0.256530 F F F
0.569100 0.500000 0.341750 F F F
0.569100 0.500000 0.426960 F F F
0.497670 0.500000 0.213920 F F F
0.497670 0.500000 0.299140 F F F
0.497670 0.500000 0.384350 F F F
0.497670 0.500000 0.469570 F F F
0.569100 0.500000 0.199720 F F F
0.569100 0.500000 0.284930 F F F
0.569100 0.500000 0.370150 F F F
0.569100 0.500000 0.455370 F F F
0.497670 0.500000 0.157110 F F F
0.497670 0.500000 0.242330 F F F
0.497670 0.500000 0.327540 F F F
0.497670 0.500000 0.412760 F F F
0.426240 0.500000 0.171310 F F F
0.426240 0.500000 0.256530 F F F
0.426240 0.500000 0.341750 F F F
0.426240 0.500000 0.426960 F F F
0.354810 0.500000 0.213920 F F F
0.354810 0.500000 0.299140 F F F
0.354810 0.500000 0.384350 F F F
0.354810 0.500000 0.469570 F F F
0.426240 0.500000 0.199720 F F F
0.426240 0.500000 0.284930 F F F
0.426240 0.500000 0.370150 F F F
0.426240 0.500000 0.455370 F F F
0.354810 0.500000 0.157110 F F F
0.354810 0.500000 0.242330 F F F
0.354810 0.500000 0.327540 F F F
0.354810 0.500000 0.412760 F F F
0.283380 0.500000 0.171310 F F F
0.283380 0.500000 0.256530 F F F
0.283380 0.500000 0.341750 F F F
0.283380 0.500000 0.426960 F F F
0.211960 0.500000 0.213920 F F F
0.211960 0.500000 0.299140 F F F
0.211960 0.500000 0.384350 F F F
0.211960 0.500000 0.469570 F F F
0.283380 0.500000 0.199720 F F F
0.283380 0.500000 0.284930 F F F
0.283380 0.500000 0.370150 F F F
0.283380 0.500000 0.455370 F F F
0.211960 0.500000 0.157110 F F F
0.211960 0.500000 0.242330 F F F
0.211960 0.500000 0.327540 F F F
0.211960 0.500000 0.412760 F F F
0.140530 0.500000 0.171310 F F F
0.140530 0.500000 0.256530 F F F
0.140530 0.500000 0.341750 F F F
0.140530 0.500000 0.426960 F F F
0.069100 0.500000 0.213920 F F F
0.069100 0.500000 0.299140 F F F
0.069100 0.500000 0.384350 F F F
0.069100 0.500000 0.469570 F F F
0.140530 0.500000 0.199720 F F F
0.140530 0.500000 0.284930 F F F
0.140530 0.500000 0.370150 F F F
0.140530 0.500000 0.455370 F F F
0.069100 0.500000 0.157110 F F F
0.069100 0.500000 0.242330 F F F
0.069100 0.500000 0.327540 F F F
0.069100 0.500000 0.412760 F F F
0.176082 0.326083 0.505919 T T T
0.489338 0.351501 0.480739 T T T
0.518549 0.593995 0.516037 T T T
0.112411 0.797938 0.476350 T T T
0.188410 0.963407 0.490982 T T T
0.955062 0.022373 0.497405 T T T
0.890656 0.089746 0.503302 T T T
0.922794 0.545519 0.495109 T T T
0.853157 0.725685 0.490101 T T T
0.966339 0.839433 0.511498 T T T
0.946210 0.896211 0.485290 T T T
0.218233 0.152150 0.521487 T T T
0.029772 0.181362 0.546043 T T T
0.437434 0.790604 0.561650 T T T
0.407122 0.809799 0.538134 T T T
0.305894 0.821721 0.572324 T T T
0.559632 0.470515 0.579856 T T T
0.688220 0.480686 0.564018 T T T
0.437867 0.589605 0.582382 T T T
0.674459 0.642259 0.525004 T T T
0.549409 0.844561 0.533868 T T T
0.594092 0.982396 0.534911 T T T
0.057551 0.157313 0.701447 T T T
0.005326 0.329281 0.678263 T T T
0.190581 0.715707 0.693158 T T T
0.022997 0.722353 0.587341 T T T
0.309835 0.893632 0.594549 T T T
0.965302 0.174342 0.604898 T T T
0.575900 0.251962 0.685265 T T T
0.512418 0.587806 0.621010 T T T
0.449100 0.635903 0.607821 T T T
0.673017 0.900652 0.681240 T T T
0.473351 0.994318 0.605609 T T T
0.938686 0.500000 0.728320 T T T
0.938686 0.500000 0.777520 T T T
0.938686 0.500000 0.826720 T T T
0.938686 0.500000 0.875920 T T T
0.938686 0.500000 0.925120 T T T
0.938686 0.500000 0.974320 T T T
0.938686 0.500000 0.023520 T T T
0.063687 0.500000 0.703720 T T T
0.063687 0.500000 0.752920 T T T
0.063687 0.500000 0.802120 T T T
0.063687 0.500000 0.851320 T T T
0.063687 0.500000 0.900520 T T T
0.063687 0.500000 0.949720 T T T
0.063687 0.500000 0.998920 T T T
0.022026 0.500000 0.728320 T T T
0.022026 0.500000 0.777520 T T T
0.022026 0.500000 0.826720 T T T
0.022026 0.500000 0.875920 T T T
0.022026 0.500000 0.925120 T T T
0.022026 0.500000 0.974320 T T T
0.022026 0.500000 0.023520 T T T
0.147027 0.500000 0.703720 T T T
0.147027 0.500000 0.752920 T T T
0.147027 0.500000 0.802120 T T T
0.147027 0.500000 0.851320 T T T
0.147027 0.500000 0.900520 T T T
0.147027 0.500000 0.949720 T T T
0.147027 0.500000 0.998920 T T T
0.188686 0.500000 0.728320 T T T
0.188686 0.500000 0.777520 T T T
0.905406 0.500000 0.043270 T T T
0.055297 0.500000 0.043270 T T T
0.155537 0.500000 0.043290 T T T
0.305297 0.500000 0.043270 T T T
0.405537 0.500000 0.043290 T T T
0.555297 0.500000 0.043270 T T T
0.655537 0.500000 0.043290 T T T
0.805297 0.500000 0.043270 T T T
0.926100 0.500000 0.134310 F F F
0.783520 0.500000 0.134310 F F F
0.640670 0.500000 0.134310 F F F
0.497810 0.500000 0.134310 F F F
0.354950 0.500000 0.134310 F F F
0.212100 0.500000 0.134310 F F F
0.068960 0.500000 0.134310 F F F
0.208856 0.047308 0.506443 T T T
0.019558 0.181135 0.508727 T T T
0.190751 0.692369 0.508768 T T T
0.220708 0.714586 0.494397 T T T
0.842244 0.063866 0.537802 T T T
0.973055 0.230609 0.542704 T T T
0.446881 0.747615 0.495566 T T T
0.298319 0.921653 0.521628 T T T
0.915166 0.925427 0.467247 T T T
0.416999 0.486592 0.548831 T T T
0.149328 0.542716 0.585802 T T T
0.083683 0.766050 0.579625 T T T
0.100784 0.951808 0.543135 T T T
0.554413 0.529230 0.561628 T T T
0.652749 0.626989 0.606865 T T T
0.666382 0.670010 0.546126 T T T
0.967355 0.776431 0.577431 T T T
0.498140 0.779592 0.576236 T T T
0.568324 0.140411 0.671856 T T T
0.025165 0.216160 0.643385 T T T
0.499979 0.368711 0.613415 T T T
0.500673 0.681646 0.676962 T T T
0.635951 0.872794 0.699047 T T T
0.730821 0.080238 0.697608 T T T
0.986704 0.140327 0.651100 T T T
0.811235 0.264985 0.637489 T T T
0.742967 0.387788 0.624447 T T T
0.706583 0.758421 0.630522 T T T
