search
1.0
17.131700 0.000000 0.000000
0.000000 10.000000 0.000000
0.000000 0.000000 50.000000
C H 
227 73 
Selective dynamics
Direct
0.359061 0.500000 0.784631 T T T
0.359061 0.500000 0.833831 T T T
0.359061 0.500000 0.883031 T T T
0.359061 0.500000 0.932231 T T T
0.359061 0.500000 0.981431 T T T
0.484061 0.500000 0.661631 T T T
0.484061 0.500000 0.710831 T T T
0.484061 0.500000 0.760031 T T T
0.484061 0.500000 0.809231 T T T
0.484061 0.500000 0.858431 T T T
0.484061 0.500000 0.907631 T T T
0.484061 0.500000 0.956831 T T T
0.442401 0.500000 0.686231 T T T
0.442401 0.500000 0.735431 T T T
0.442401 0.500000 0.784631 T T T
0.442401 0.500000 0.833831 T T T
0.442401 0.500000 0.883031 T T T
0.442401 0.500000 0.932231 T T T
0.442401 0.500000 0.981431 T T T
0.567401 0.500000 0.661631 T T T
0.567401 0.500000 0.710831 T T T
0.567401 0.500000 0.760031 T T T
0.567401 0.500000 0.809231 T T T
0.567401 0.500000 0.858431 T T T
0.567401 0.500000 0.907631 T T T
0.567401 0.500000 0.956831 T T T
0.609061 0.500000 0.686231 T T T
0.609061 0.500000 0.735431 T T T
0.609061 0.500000 0.784631 T T T
0.609061 0.500000 0.833831 T T T
0.609061 0.500000 0.883031 T T T
0.609061 0.500000 0.932231 T T T
0.609061 0.500000 0.981431 T T T
0.734061 0.500000 0.661631 T T T
0.734061 0.500000 0.710831 T T T
0.734061 0.500000 0.760031 T T T
0.734061 0.500000 0.809231 T T T
0.734061 0.500000 0.858431 T T T
0.734061 0.500000 0.907631 T T T
0.734061 0.500000 0.956831 T T T
0.692401 0.500000 0.686231 T T T
0.692401 0.500000 0.735431 T T T
0.692401 0.500000 0.784631 T T T
0.692401 0.500000 0.833831 T T T
0.692401 0.500000 0.883031 T T T
0.692401 0.500000 0.932231 T T T
0.692401 0.500000 0.981431 T T T
0.817401 0.500000 0.661631 T T T
0.817401 0.500000 0.710831 T T T
0.817401 0.500000 0.760031 T T T
0.817401 0.500000 0.809231 T T T
0.817401 0.500000 0.858431 T T T
0.817401 0.500000 0.907631 T T T
0.817401 0.500000 0.956831 T T T
0.859061 0.500000 0.686231 T T T
0.859061 0.500000 0.735431 T T T
0.859061 0.500000 0.784631 T T T
0.859061 0.500000 0.833831 T T T
0.859061 0.500000 0.883031 T T T
0.859061 0.500000 0.932231 T T T
0.859061 0.500000 0.981431 T T T
0.984061 0.500000 0.661631 T T T
0.984061 0.500000 0.710831 T T T
0.984061 0.500000 0.760031 T T T
0.984061 0.500000 0.809231 T T T
0.984061 0.500000 0.858431 T T T
0.984061 0.500000 0.907631 T T T
0.984061 0.500000 0.956831 T T T
0.942401 0.500000 0.686231 T T T
0.942401 0.500000 0.735431 T T T
0.942401 0.500000 0.784631 T T T
0.942401 0.500000 0.833831 T T T
0.942401 0.500000 0.883031 T T T
0.942401 0.500000 0.932231 T T T
0.942401 0.500000 0.981431 T T T
0.067401 0.500000 0.661631 T T T
0.067401 0.500000 0.710831 T T T
0.067401 0.500000 0.760031 T T T
0.067401 0.500000 0.809231 T T T
0.067401 0.500000 0.858431 T T T
0.067401 0.500000 0.907631 T T T
0.067401 0.500000 0.956831 T T T
0.997670 0.500000 0.171310 F F F
0.997670 0.500000 0.256530 F F F
0.997670 0.500000 0.341750 F F F
0.997670 0.500000 0.426960 F F F
0.997670 0.500000 0.199720 F F F
0.997670 0.500000 0.284930 F F F
0.997670 0.500000 0.370150 F F F
0.997670 0.500000 0.455370 F F F
0.926240 0.500000 0.213920 F F F
0.926240 0.500000 0.299140 F F F
0.926240 0.500000 0.384350 F F F
0.926240 0.500000 0.469570 F F F
0.926240 0.500000 0.157110 F F F
0.926240 0.500000 0.242330 F F F
0.926240 0.500000 0.327540 F F F
0.926240 0.500000 0.412760 F F F
0.854810 0.500000 0.171310 F F F
0.854810 0.500000 0.256530 F F F
0.854810 0.500000 0.341750 F F F
0.854810 0.500000 0.426960 F F F
0.783380 0.500000 0.213920 F F F
0.783380 0.500000 0.299140 F F F
0.783380 0.500000 0.384350 F F F
0.783380 0.500000 0.469570 F F F
0.854810 0.500000 0.199720 F F F
0.854810 0.500000 0.284930 F F F
0.854810 0.500000 0.370150 F F F
0.854810 0.500000 0.455370 F F F
0.783380 0.500000 0.157110 F F F
0.783380 0.500000 0.242330 F F F
0.783380 0.500000 0.327540 F F F
0.783380 0.500000 0.412760 F F F
0.711960 0.500000 0.171310 F F F
0.711960 0.500000 0.256530 F F F
0.711960 0.500000 0.341750 F F F
0.711960 0.500000 0.426960 F F F
0.640530 0.500000 0.213920 F F F
0.640530 0.500000 0.299140 F F F
0.640530 0.500000 0.384350 F F F
0.640530 0.500000 0.469570 F F F
0.711960 0.500000 0.199720 F F F
0.711960 0.500000 0.284930 F F F
0.711960 0.500000 0.370150 F F F
0.711960 0.500000 0.455370 F F F
0.640530 0.500000 0.157110 F F F
0.640530 0.500000 0.242330 F F F
0.640530 0.500000 0.327540 F F F
0.640530 0.500000 0.412760 F F F
0.569100 0.500000 0.171310 F F F
0.569100 0.500000 0.256530 F F F
0.569100 0.500000 0.341750 F F F
0.569100 0.500000 0.426960 F F F
0.497670 0.500000 0.213920 F F F
0.497670 0.500000 0.299140 F F F
0.497670 0.500000 0.384350 F F F
0.497670 0.500000 0.469570 F F F
0.569100 0.500000 0.199720 F F F
0.569100 0.500000 0.284930 F F F
0.569100 0.500000 0.370150 F F F
0.569100 0.500000 0.455370 F F F
0.497670 0.500000 0.157110 F F F
0.497670 0.500000 0.242330 F F F
0.497670 0.500000 0.327540 F F F
0.497670 0.500000 0.412760 F F F
0.426240 0.500000 0.171310 F F F
0.426240 0.500000 0.256530 F F F
0.426240 0.500000 0.341750 F F F
0.426240 0.500000 0.426960 F F F
0.354810 0.500000 0.213920 F F F
0.354810 0.500000 0.299140 F F F
0.354810 0.500000 0.384350 F F F
0.354810 0.500000 0.469570 F F F
0.426240 0.500000 0.199720 F F F
0.426240 0.500000 0.284930 F F F
0.426240 0.500000 0.370150 F F F
0.426240 0.500000 0.455370 F F F
0.354810 0.500000 0.157110 F F F
0.354810 0.500000 0.242330 F F F
0.354810 0.500000 0.327540 F F F
0.354810 0.500000 0.412760 F F F
0.283380 0.500000 0.171310 F F F
0.283380 0.500000 0.256530 F F F
0.283380 0.500000 0.341750 F F F
0.283380 0.500000 0.426960 F F F
0.211960 0.500000 0.213920 F F F
0.211960 0.500000 0.299140 F F F
0.211960 0.500000 0.384350 F F F
0.211960 0.500000 0.469570 F F F
0.283380 0.500000 0.199720 F F F
0.283380 0.500000 0.284930 F F F
0.283380 0.500000 0.370150 F F F
0.283380 0.500000 0.455370 F F F
0.211960 0.500000 0.157110 F F F
0.211960 0.500000 0.242330 F F F
0.211960 0.500000 0.327540 F F F
0.211960 0.500000 0.412760 F F F
0.140530 0.500000 0.171310 F F F
0.140530 0.500000 0.256530 F F F
0.140530 0.500000 0.341750 F F F
0.140530 0.500000 0.426960 F F F
0.069100 0.500000 0.213920 F F F
0.069100 0.500000 0.299140 F F F
0.069100 0.500000 0.384350 F F F
0.069100 0.500000 0.469570 F F F
0.140530 0.500000 0.199720 F F F
0.140530 0.500000 0.284930 F F F
0.140530 0.500000 0.370150 F F F
0.140530 0.500000 0.455370 F F F
0.069100 0.500000 0.157110 F F F
0.069100 0.500000 0.242330 F F F
0.069100 0.500000 0.327540 F F F
0.069100 0.500000 0.412760 F F F
0.569846 0.150516 0.484566 T T T
0.545736 0.527058 0.494162 T T T
0.234544 0.733050 0.520831 T T T
0.398729 0.625670 0.470679 T T T
0.475133 0.754114 0.515423 T T T
0.366368 0.202910 0.469889 T T T
0.912462 0.516626 0.494707 T T T
0.070361 0.428651 0.500197 T T T
0.725602 0.557185 0.484982 T T T
0.498739 0.910433 0.469989 T T T
0.198569 0.905307 0.503416 T T T
0.239073 0.136554 0.506399 T T T
0.124425 0.504192 0.552864 T T T
0.428578 0.917868 0.516088 T T T
0.676577 0.151483 0.531214 T T T
0.251915 0.216534 0.531478 T T T
0.476137 0.476640 0.632442 T T T
0.108500 0.672144 0.540246 T T T
0.838161 0.106063 0.528655 T T T
0.353250 0.900238 0.522880 T T T
0.741908 0.804149 0.529809 T T T
0.499056 0.938495 0.565668 T T T
0.882563 0.461103 0.646626 T T T
0.398096 0.896794 0.606627 T T T
0.991995 0.999392 0.657938 T T T
0.099116 0.398342 0.642351 T T T
0.969395 0.176893 0.609271 T T T
0.288972 0.027583 0.660001 T T T
0.377118 0.555403 0.613248 T T T
0.773653 0.387585 0.654528 T T T
0.099293 0.707633 0.654294 T T T
0.787412 0.682138 0.656331 T T T
0.009284 0.888775 0.660413 T T T
0.109061 0.500000 0.686231 T T T
0.109061 0.500000 0.735431 T T T
0.109061 0.500000 0.784631 T T T
0.109061 0.500000 0.833831 T T T
0.109061 0.500000 0.883031 T T T
0.109061 0.500000 0.932231 T T T
0.109061 0.500000 0.981431 T T T
0.234061 0.500000 0.661631 T T T
0.234061 0.500000 0.710831 T T T
0.234061 0.500000 0.760031 T T T
0.234061 0.500000 0.809231 T T T
0.234061 0.500000 0.858431 T T T
0.234061 0.500000 0.907631 T T T
0.234061 0.500000 0.956831 T T T
0.192401 0.500000 0.686231 T T T
0.192401 0.500000 0.735431 T T T
0.192401 0.500000 0.784631 T T T
0.192401 0.500000 0.833831 T T T
0.192401 0.500000 0.883031 T T T
0.192401 0.500000 0.932231 T T T
0.192401 0.500000 0.981431 T T T
0.317401 0.500000 0.661631 T T T
0.317401 0.500000 0.710831 T T T
0.317401 0.500000 0.760031 T T T
0.317401 0.500000 0.809231 T T T
0.317401 0.500000 0.858431 T T T
0.317401 0.500000 0.907631 T T T
0.317401 0.500000 0.956831 T T T
0.359061 0.500000 0.686231 T T T
0.359061 0.500000 0.735431 T T T
0.075781 0.500000 0.001181 T T T
0.225671 0.500000 0.001181 T T T
0.325911 0.500000 0.001201 T T T
0.475671 0.500000 0.001181 T T T
0.575911 0.500000 0.001201 T T T
0.725671 0.500000 0.001181 T T T
0.825911 0.500000 0.001201 T T T
0.975671 0.500000 0.001181 T T T
0.926100 0.500000 0.134310 F F F
0.783520 0.500000 0.134310 F F F
0.640670 0.500000 0.134310 F F F
0.497810 0.500000 0.134310 F F F
0.354950 0.500000 0.134310 F F F
0.212100 0.500000 0.134310 F F F
0.068960 0.500000 0.134310 F F F
0.104112 0.130340 0.497166 T T T
0.535721 0.702459 0.470002 T T T
0.295232 0.122952 0.505022 T T T
0.674424 0.493370 0.542883 T T T
0.661272 0.072457 0.469999 T T T
0.290984 0.117838 0.540967 T T T
0.163879 0.275390 0.469791 T T T
0.672059 0.781745 0.469992 T T T
0.108225 0.529766 0.476422 T T T
0.108536 0.012427 0.496250 T T T
0.211924 0.209321 0.552763 T T T
0.583882 0.055817 0.504946 T T T
0.024106 0.404966 0.523128 T T T
0.797849 0.048682 0.519080 T T T
0.952101 0.403927 0.572365 T T T
0.124177 0.376865 0.489186 T T T
0.754359 0.649399 0.502805 T T T
0.655168 0.054080 0.543760 T T T
0.130750 0.119822 0.625682 T T T
0.774068 0.776697 0.587468 T T T
0.932359 0.098933 0.603362 T T T
0.482165 0.523815 0.571894 T T T
0.843949 0.329175 0.614106 T T T
0.321317 0.764875 0.660003 T T T
0.484159 0.389897 0.624786 T T T
0.616053 0.288818 0.581343 T T T
0.361771 0.407901 0.517861 T T T
0.635191 0.665468 0.561428 T T T
