search
1.0
17.131700 0.000000 0.000000
0.000000 10.000000 0.000000
0.000000 0.000000 50.000000
C H 
227 73 
Selective dynamics
Direct
0.385133 0.500000 0.784526 T T T
0.385133 0.500000 0.833726 T T T
0.385133 0.500000 0.882926 T T T
0.385133 0.500000 0.932126 T T T
0.385133 0.500000 0.981326 T T T
0.510134 0.500000 0.661526 T T T
0.510134 0.500000 0.710726 T T T
0.510134 0.500000 0.759926 T T T
0.510134 0.500000 0.809126 T T T
0.510134 0.500000 0.858326 T T T
0.510134 0.500000 0.907526 T T T
0.510134 0.500000 0.956726 T T T
0.468473 0.500000 0.686126 T T T
0.468473 0.500000 0.735326 T T T
0.468473 0.500000 0.784526 T T T
0.468473 0.500000 0.833726 T T T
0.468473 0.500000 0.882926 T T T
0.468473 0.500000 0.932126 T T T
0.468473 0.500000 0.981326 T T T
0.593474 0.500000 0.661526 T T T
0.593474 0.500000 0.710726 T T T
0.593474 0.500000 0.759926 T T T
0.593474 0.500000 0.809126 T T T
0.593474 0.500000 0.858326 T T T
0.593474 0.500000 0.907526 T T T
0.593474 0.500000 0.956726 T T T
0.635133 0.500000 0.686126 T T T
0.635133 0.500000 0.735326 T T T
0.635133 0.500000 0.784526 T T T
0.635133 0.500000 0.833726 T T T
0.635133 0.500000 0.882926 T T T
0.635133 0.500000 0.932126 T T T
0.635133 0.500000 0.981326 T T T
0.760134 0.500000 0.661526 T T T
0.760134 0.500000 0.710726 T T T
0.760134 0.500000 0.759926 T T T
0.760134 0.500000 0.809126 T T T
0.760134 0.500000 0.858326 T T T
0.760134 0.500000 0.907526 T T T
0.760134 0.500000 0.956726 T T T
0.718473 0.500000 0.686126 T T T
0.718473 0.500000 0.735326 T T T
0.718473 0.500000 0.784526 T T T
0.718473 0.500000 0.833726 T T T
0.718473 0.500000 0.882926 T T T
0.718473 0.500000 0.932126 T T T
0.718473 0.500000 0.981326 T T T
0.843474 0.500000 0.661526 T T T
0.843474 0.500000 0.710726 T T T
0.843474 0.500000 0.759926 T T T
0.843474 0.500000 0.809126 T T T
0.843474 0.500000 0.858326 T T T
0.843474 0.500000 0.907526 T T T
0.843474 0.500000 0.956726 T T T
0.885133 0.500000 0.686126 T T T
0.885133 0.500000 0.735326 T T T
0.885133 0.500000 0.784526 T T T
0.885133 0.500000 0.833726 T T T
0.885133 0.500000 0.882926 T T T
0.885133 0.500000 0.932126 T T T
0.885133 0.500000 0.981326 T T T
0.010134 0.500000 0.661526 T T T
0.010134 0.500000 0.710726 T T T
0.010134 0.500000 0.759926 T T T
0.010134 0.500000 0.809126 T T T
0.010134 0.500000 0.858326 T T T
0.010134 0.500000 0.907526 T T T
0.010134 0.500000 0.956726 T T T
0.968473 0.500000 0.686126 T T T
0.968473 0.500000 0.735326 T T T
0.968473 0.500000 0.784526 T T T
0.968473 0.500000 0.833726 T T T
0.968473 0.500000 0.882926 T T T
0.968473 0.500000 0.932126 T T T
0.968473 0.500000 0.981326 T T T
0.093474 0.500000 0.661526 T T T
0.093474 0.500000 0.710726 T T T
0.093474 0.500000 0.759926 T T T
0.093474 0.500000 0.809126 T T T
0.093474 0.500000 0.858326 T T T
0.093474 0.500000 0.907526 T T T
0.093474 0.500000 0.956726 T T T
0.997670 0.500000 0.171310 F F F
0.997670 0.500000 0.256530 F F F
0.997670 0.500000 0.341750 F F F
0.997670 0.500000 0.426960 F F F
0.997670 0.500000 0.199720 F F F
0.997670 0.500000 0.284930 F F F
0.997670 0.500000 0.370150 F F F
0.997670 0.500000 0.455370 F F F
0.926240 0.500000 0.213920 F F F
0.926240 0.500000 0.299140 F F F
0.926240 0.500000 0.384350 F F F
0.926240 0.500000 0.469570 F F F
0.926240 0.500000 0.157110 F F F
0.926240 0.500000 0.242330 F F F
0.926240 0.500000 0.327540 F F F
0.926240 0.500000 0.412760 F F F
0.854810 0.500000 0.171310 F F F
0.854810 0.500000 0.256530 F F F
0.854810 0.500000 0.341750 F F F
0.854810 0.500000 0.426960 F F F
0.783380 0.500000 0.213920 F F F
0.783380 0.500000 0.299140 F F F
0.783380 0.500000 0.384350 F F F
0.783380 0.500000 0.469570 F F F
0.854810 0.500000 0.199720 F F F
0.854810 0.500000 0.284930 F F F
0.854810 0.500000 0.370150 F F F
0.854810 0.500000 0.455370 F F F
0.783380 0.500000 0.157110 F F F
0.783380 0.500000 0.242330 F F F
0.783380 0.500000 0.327540 F F F
0.783380 0.500000 0.412760 F F F
0.711960 0.500000 0.171310 F F F
0.711960 0.500000 0.256530 F F F
0.711960 0.500000 0.341750 F F F
0.711960 0.500000 0.426960 F F F
0.640530 0.500000 0.213920 F F F
0.640530 0.500000 0.299140 F F F
0.640530 0.500000 0.384350 F F F
0.640530 0.500000 0.469570 F F F
0.711960 0.500000 0.199720 F F F
0.711960 0.500000 0.284930 F F F
0.711960 0.500000 0.370150 F F F
0.711960 0.500000 0.455370 F F F
0.640530 0.500000 0.157110 F F F
0.640530 0.500000 0.242330 F F F
0.640530 0.500000 0.327540 F F F
0.640530 0.500000 0.412760 F F F
0.569100 0.500000 0.171310 F F F
0.569100 0.500000 0.256530 F F F
0.569100 0.500000 0.341750 F F F
0.569100 0.500000 0.426960 F F F
0.497670 0.500000 0.213920 F F F
0.497670 0.500000 0.299140 F F F
0.497670 0.500000 0.384350 F F F
0.497670 0.500000 0.469570 F F F
0.569100 0.500000 0.199720 F F F
0.569100 0.500000 0.284930 F F F
0.569100 0.500000 0.370150 F F F
0.569100 0.500000 0.455370 F F F
0.497670 0.500000 0.157110 F F F
0.497670 0.500000 0.242330 F F F
0.497670 0.500000 0.327540 F F F
0.497670 0.500000 0.412760 F F F
0.426240 0.500000 0.171310 F F F
0.426240 0.500000 0.256530 F F F
0.426240 0.500000 0.341750 F F F
0.426240 0.500000 0.426960 F F F
0.354810 0.500000 0.213920 F F F
0.354810 0.500000 0.299140 F F F
0.354810 0.500000 0.384350 F F F
0.354810 0.500000 0.469570 F F F
0.426240 0.500000 0.199720 F F F
0.426240 0.500000 0.284930 F F F
0.426240 0.500000 0.370150 F F F
0.426240 0.500000 0.455370 F F F
0.354810 0.500000 0.157110 F F F
0.354810 0.500000 0.242330 F F F
0.354810 0.500000 0.327540 F F F
0.354810 0.500000 0.412760 F F F
0.283380 0.500000 0.171310 F F F
0.283380 0.500000 0.256530 F F F
0.283380 0.500000 0.341750 F F F
0.283380 0.500000 0.426960 F F F
0.211960 0.500000 0.213920 F F F
0.211960 0.500000 0.299140 F F F
0.211960 0.500000 0.384350 F F F
0.211960 0.500000 0.469570 F F F
0.283380 0.500000 0.199720 F F F
0.283380 0.500000 0.284930 F F F
0.283380 0.500000 0.370150 F F F
0.283380 0.500000 0.455370 F F F
0.211960 0.500000 0.157110 F F F
0.211960 0.500000 0.242330 F F F
0.211960 0.500000 0.327540 F F F
0.211960 0.500000 0.412760 F F F
0.140530 0.500000 0.171310 F F F
0.140530 0.500000 0.256530 F F F
0.140530 0.500000 0.341750 F F F
0.140530 0.500000 0.426960 F F F
0.069100 0.500000 0.213920 F F F
0.069100 0.500000 0.299140 F F F
0.069100 0.500000 0.384350 F F F
0.069100 0.500000 0.469570 F F F
0.140530 0.500000 0.199720 F F F
0.140530 0.500000 0.284930 F F F
0.140530 0.500000 0.370150 F F F
0.140530 0.500000 0.455370 F F F
0.069100 0.500000 0.157110 F F F
0.069100 0.500000 0.242330 F F F
0.069100 0.500000 0.327540 F F F
0.069100 0.500000 0.412760 F F F
0.092051 0.984187 0.531683 T T T
0.333404 0.160550 0.494237 T T T
0.010887 0.123566 0.493245 T T T
0.434391 0.420984 0.509212 T T T
0.130261 0.814871 0.533689 T T T
0.703400 0.197352 0.522745 T T T
0.215882 0.341656 0.502340 T T T
0.954074 0.371543 0.470104 T T T
0.767752 0.927844 0.508535 T T T
0.711544 0.110773 0.469215 T T T
0.643431 0.891896 0.469998 T T T
0.244025 0.496119 0.558207 T T T
0.181947 0.530566 0.489869 T T T
0.700956 0.558025 0.503373 T T T
0.275132 0.117824 0.507753 T T T
0.180368 0.789142 0.556292 T T T
0.625458 0.572029 0.486575 T T T
0.265704 0.696636 0.521585 T T T
0.620772 0.605738 0.571445 T T T
0.906315 0.606380 0.554047 T T T
0.401017 0.827302 0.539365 T T T
0.745631 0.659034 0.499174 T T T
0.790047 0.231921 0.659999 T T T
0.376852 0.218443 0.590271 T T T
0.139638 0.208078 0.627411 T T T
0.026925 0.441550 0.634855 T T T
0.692793 0.862104 0.657265 T T T
0.066258 0.303239 0.573625 T T T
0.840939 0.132681 0.659823 T T T
0.221208 0.279958 0.640721 T T T
0.795509 0.720927 0.612733 T T T
0.136724 0.720157 0.597677 T T T
0.729477 0.848333 0.624961 T T T
0.135133 0.500000 0.686126 T T T
0.135133 0.500000 0.735326 T T T
0.135133 0.500000 0.784526 T T T
0.135133 0.500000 0.833726 T T T
0.135133 0.500000 0.882926 T T T
0.135133 0.500000 0.932126 T T T
0.135133 0.500000 0.981326 T T T
0.260134 0.500000 0.661526 T T T
0.260134 0.500000 0.710726 T T T
0.260134 0.500000 0.759926 T T T
0.260134 0.500000 0.809126 T T T
0.260134 0.500000 0.858326 T T T
0.260134 0.500000 0.907526 T T T
0.260134 0.500000 0.956726 T T T
0.218473 0.500000 0.686126 T T T
0.218473 0.500000 0.735326 T T T
0.218473 0.500000 0.784526 T T T
0.218473 0.500000 0.833726 T T T
0.218473 0.500000 0.882926 T T T
0.218473 0.500000 0.932126 T T T
0.218473 0.500000 0.981326 T T T
0.343474 0.500000 0.661526 T T T
0.343474 0.500000 0.710726 T T T
0.343474 0.500000 0.759926 T T T
0.343474 0.500000 0.809126 T T T
0.343474 0.500000 0.858326 T T T
0.343474 0.500000 0.907526 T T T
0.343474 0.500000 0.956726 T T T
0.385133 0.500000 0.686126 T T T
0.385133 0.500000 0.735326 T T T
0.101853 0.500000 0.001076 T T T
0.251744 0.500000 0.001076 T T T
0.351984 0.500000 0.001096 T T T
0.501744 0.500000 0.001076 T T T
0.601984 0.500000 0.001096 T T T
0.751744 0.500000 0.001076 T T T
0.851984 0.500000 0.001096 T T T
0.001744 0.500000 0.001076 T T T
0.926100 0.500000 0.134310 F F F
0.783520 0.500000 0.134310 F F F
0.640670 0.500000 0.134310 F F F
0.497810 0.500000 0.134310 F F F
0.354950 0.500000 0.134310 F F F
0.212100 0.500000 0.134310 F F F
0.068960 0.500000 0.134310 F F F
0.385206 0.277943 0.520566 T T T
0.152560 0.222839 0.516171 T T T
0.779793 0.007312 0.489049 T T T
0.217952 0.098006 0.546576 T T T
0.405192 0.674520 0.495931 T T T
0.735445 0.648265 0.483489 T T T
0.022605 0.995686 0.523270 T T T
0.924692 0.985713 0.516465 T T T
0.581756 0.289266 0.528080 T T T
0.248654 0.542533 0.611430 T T T
0.454587 0.235721 0.618295 T T T
0.120247 0.495534 0.600056 T T T
0.289117 0.748384 0.609271 T T T
0.878893 0.160264 0.580932 T T T
0.873718 0.500403 0.608669 T T T
0.735559 0.503374 0.622774 T T T
0.273142 0.296109 0.621402 T T T
0.531923 0.821703 0.615400 T T T
0.344507 0.339113 0.659993 T T T
0.354921 0.127019 0.644661 T T T
0.131984 0.264668 0.660324 T T T
0.900743 0.480486 0.643257 T T T
0.468254 0.190142 0.660000 T T T
0.173578 0.291605 0.645586 T T T
0.770402 0.666813 0.659952 T T T
0.878627 0.929450 0.633915 T T T
0.435431 0.884912 0.612680 T T T
0.237178 0.616455 0.660014 T T T
