search
1.0
17.131700 0.000000 0.000000
0.000000 10.000000 0.000000
0.000000 0.000000 50.000000
C H 
227 73 
Selective dynamics
Direct
0.148497 0.500000 0.784514 T T T
0.148497 0.500000 0.833714 T T T
0.148497 0.500000 0.882914 T T T
0.148497 0.500000 0.932114 T T T
0.148497 0.500000 0.981314 T T T
0.273497 0.500000 0.661514 T T T
0.273497 0.500000 0.710714 T T T
0.273497 0.500000 0.759914 T T T
0.273497 0.500000 0.809114 T T T
0.273497 0.500000 0.858314 T T T
0.273497 0.500000 0.907514 T T T
0.273497 0.500000 0.956714 T T T
0.231837 0.500000 0.686114 T T T
0.231837 0.500000 0.735314 T T T
0.231837 0.500000 0.784514 T T T
0.231837 0.500000 0.833714 T T T
0.231837 0.500000 0.882914 T T T
0.231837 0.500000 0.932114 T T T
0.231837 0.500000 0.981314 T T T
0.356837 0.500000 0.661514 T T T
0.356837 0.500000 0.710714 T T T
0.356837 0.500000 0.759914 T T T
0.356837 0.500000 0.809114 T T T
0.356837 0.500000 0.858314 T T T
0.356837 0.500000 0.907514 T T T
0.356837 0.500000 0.956714 T T T
0.398497 0.500000 0.686114 T T T
0.398497 0.500000 0.735314 T T T
0.398497 0.500000 0.784514 T T T
0.398497 0.500000 0.833714 T T T
0.398497 0.500000 0.882914 T T T
0.398497 0.500000 0.932114 T T T
0.398497 0.500000 0.981314 T T T
0.523497 0.500000 0.661514 T T T
0.523497 0.500000 0.710714 T T T
0.523497 0.500000 0.759914 T T T
0.523497 0.500000 0.809114 T T T
0.523497 0.500000 0.858314 T T T
0.523497 0.500000 0.907514 T T T
0.523497 0.500000 0.956714 T T T
0.481837 0.500000 0.686114 T T T
0.481837 0.500000 0.735314 T T T
0.481837 0.500000 0.784514 T T T
0.481837 0.500000 0.833714 T T T
0.481837 0.500000 0.882914 T T T
0.481837 0.500000 0.932114 T T T
0.481837 0.500000 0.981314 T T T
0.606837 0.500000 0.661514 T T T
0.606837 0.500000 0.710714 T T T
0.606837 0.500000 0.759914 T T T
0.606837 0.500000 0.809114 T T T
0.606837 0.500000 0.858314 T T T
0.606837 0.500000 0.907514 T T T
0.606837 0.500000 0.956714 T T T
0.648497 0.500000 0.686114 T T T
0.648497 0.500000 0.735314 T T T
0.648497 0.500000 0.784514 T T T
0.648497 0.500000 0.833714 T T T
0.648497 0.500000 0.882914 T T T
0.648497 0.500000 0.932114 T T T
0.648497 0.500000 0.981314 T T T
0.773497 0.500000 0.661514 T T T
0.773497 0.500000 0.710714 T T T
0.773497 0.500000 0.759914 T T T
0.773497 0.500000 0.809114 T T T
0.773497 0.500000 0.858314 T T T
0.773497 0.500000 0.907514 T T T
0.773497 0.500000 0.956714 T T T
0.731837 0.500000 0.686114 T T T
0.731837 0.500000 0.735314 T T T
0.731837 0.500000 0.784514 T T T
0.731837 0.500000 0.833714 T T T
0.731837 0.500000 0.882914 T T T
0.731837 0.500000 0.932114 T T T
0.731837 0.500000 0.981314 T T T
0.856837 0.500000 0.661514 T T T
0.856837 0.500000 0.710714 T T T
0.856837 0.500000 0.759914 T T T
0.856837 0.500000 0.809114 T T T
0.856837 0.500000 0.858314 T T T
0.856837 0.500000 0.907514 T T T
0.856837 0.500000 0.956714 T T T
0.997670 0.500000 0.171310 F F F
0.997670 0.500000 0.256530 F F F
0.997670 0.500000 0.341750 F F F
0.997670 0.500000 0.426960 F F F
0.997670 0.500000 0.199720 F F F
0.997670 0.500000 0.284930 F F F
0.997670 0.500000 0.370150 F F F
0.997670 0.500000 0.455370 F F F
0.926240 0.500000 0.213920 F F F
0.926240 0.500000 0.299140 F F F
0.926240 0.500000 0.384350 F F F
0.926240 0.500000 0.469570 F F F
0.926240 0.500000 0.157110 F F F
0.926240 0.500000 0.242330 F F F
0.926240 0.500000 0.327540 F F F
0.926240 0.500000 0.412760 F F F
0.854810 0.500000 0.171310 F F F
0.854810 0.500000 0.256530 F F F
0.854810 0.500000 0.341750 F F F
0.854810 0.500000 0.426960 F F F
0.783380 0.500000 0.213920 F F F
0.783380 0.500000 0.299140 F F F
0.783380 0.500000 0.384350 F F F
0.783380 0.500000 0.469570 F F F
0.854810 0.500000 0.199720 F F F
0.854810 0.500000 0.284930 F F F
0.854810 0.500000 0.370150 F F F
0.854810 0.500000 0.455370 F F F
0.783380 0.500000 0.157110 F F F
0.783380 0.500000 0.242330 F F F
0.783380 0.500000 0.327540 F F F
0.783380 0.500000 0.412760 F F F
0.711960 0.500000 0.171310 F F F
0.711960 0.500000 0.256530 F F F
0.711960 0.500000 0.341750 F F F
0.711960 0.500000 0.426960 F F F
0.640530 0.500000 0.213920 F F F
0.640530 0.500000 0.299140 F F F
0.640530 0.500000 0.384350 F F F
0.640530 0.500000 0.469570 F F F
0.711960 0.500000 0.199720 F F F
0.711960 0.500000 0.284930 F F F
0.711960 0.500000 0.370150 F F F
0.711960 0.500000 0.455370 F F F
0.640530 0.500000 0.157110 F F F
0.640530 0.500000 0.242330 F F F
0.640530 0.500000 0.327540 F F F
0.640530 0.500000 0.412760 F F F
0.569100 0.500000 0.171310 F F F
0.569100 0.500000 0.256530 F F F
0.569100 0.500000 0.341750 F F F
0.569100 0.500000 0.426960 F F F
0.497670 0.500000 0.213920 F F F
0.497670 0.500000 0.299140 F F F
0.497670 0.500000 0.384350 F F F
0.497670 0.500000 0.469570 F F F
0.569100 0.500000 0.199720 F F F
0.569100 0.500000 0.284930 F F F
0.569100 0.500000 0.370150 F F F
0.569100 0.500000 0.455370 F F F
0.497670 0.500000 0.157110 F F F
0.497670 0.500000 0.242330 F F F
0.497670 0.500000 0.327540 F F F
0.497670 0.500000 0.412760 F F F
0.426240 0.500000 0.171310 F F F
0.426240 0.500000 0.256530 F F F
0.426240 0.500000 0.341750 F F F
0.426240 0.500000 0.426960 F F F
0.354810 0.500000 0.213920 F F F
0.354810 0.500000 0.299140 F F F
0.354810 0.500000 0.384350 F F F
0.354810 0.500000 0.469570 F F F
0.426240 0.500000 0.199720 F F F
0.426240 0.500000 0.284930 F F F
0.426240 0.500000 0.370150 F F F
0.426240 0.500000 0.455370 F F F
0.354810 0.500000 0.157110 F F F
0.354810 0.500000 0.242330 F F F
0.354810 0.500000 0.327540 F F F
0.354810 0.500000 0.412760 F F F
0.283380 0.500000 0.171310 F F F
0.283380 0.500000 0.256530 F F F
0.283380 0.500000 0.341750 F F F
0.283380 0.500000 0.426960 F F F
0.211960 0.500000 0.213920 F F F
0.211960 0.500000 0.299140 F F F
0.211960 0.500000 0.384350 F F F
0.211960 0.500000 0.469570 F F F
0.283380 0.500000 0.199720 F F F
0.283380 0.500000 0.284930 F F F
0.283380 0.500000 0.370150 F F F
0.283380 0.500000 0.455370 F F F
0.211960 0.500000 0.157110 F F F
0.211960 0.500000 0.242330 F F F
0.211960 0.500000 0.327540 F F F
0.211960 0.500000 0.412760 F F F
0.140530 0.500000 0.171310 F F F
0.140530 0.500000 0.256530 F F F
0.140530 0.500000 0.341750 F F F
0.140530 0.500000 0.426960 F F F
0.069100 0.500000 0.213920 F F F
0.069100 0.500000 0.299140 F F F
0.069100 0.500000 0.384350 F F F
0.069100 0.500000 0.469570 F F F
0.140530 0.500000 0.199720 F F F
0.140530 0.500000 0.284930 F F F
0.140530 0.500000 0.370150 F F F
0.140530 0.500000 0.455370 F F F
0.069100 0.500000 0.157110 F F F
0.069100 0.500000 0.242330 F F F
0.069100 0.500000 0.327540 F F F
0.069100 0.500000 0.412760 F F F
0.642402 0.276963 0.514554 T T T
0.426072 0.467551 0.489193 T T T
0.441919 0.630631 0.478735 T T T
0.780774 0.006669 0.519261 T T T
0.678178 0.055627 0.469826 T T T
0.038462 0.038850 0.501042 T T T
0.752269 0.088684 0.471358 T T T
0.853046 0.447941 0.526441 T T T
0.749176 0.635203 0.496331 T T T
0.842844 0.950579 0.499605 T T T
0.868993 0.110626 0.508595 T T T
0.970620 0.190152 0.566550 T T T
0.152719 0.235074 0.583342 T T T
0.138632 0.092909 0.570275 T T T
0.124463 0.366393 0.513552 T T T
0.034742 0.747969 0.587243 T T T
0.111112 0.219708 0.532199 T T T
0.883255 0.245471 0.527844 T T T
0.395670 0.643935 0.566108 T T T
0.672541 0.986618 0.537796 T T T
0.734143 0.859719 0.532376 T T T
0.609401 0.947203 0.522080 T T T
0.419950 0.097029 0.646500 T T T
0.690947 0.183691 0.588217 T T T
0.538495 0.606066 0.601080 T T T
0.881042 0.705407 0.659540 T T T
0.943106 0.916019 0.659999 T T T
0.829299 0.350640 0.574494 T T T
0.535346 0.278402 0.626928 T T T
0.899182 0.105950 0.654587 T T T
0.961886 0.172773 0.638989 T T T
0.919710 0.530145 0.662341 T T T
0.784254 0.076128 0.659962 T T T
0.898497 0.500000 0.686114 T T T
0.898497 0.500000 0.735314 T T T
0.898497 0.500000 0.784514 T T T
0.898497 0.500000 0.833714 T T T
0.898497 0.500000 0.882914 T T T
0.898497 0.500000 0.932114 T T T
0.898497 0.500000 0.981314 T T T
0.023497 0.500000 0.661514 T T T
0.023497 0.500000 0.710714 T T T
0.023497 0.500000 0.759914 T T T
0.023497 0.500000 0.809114 T T T
0.023497 0.500000 0.858314 T T T
0.023497 0.500000 0.907514 T T T
0.023497 0.500000 0.956714 T T T
0.981837 0.500000 0.686114 T T T
0.981837 0.500000 0.735314 T T T
0.981837 0.500000 0.784514 T T T
0.981837 0.500000 0.833714 T T T
0.981837 0.500000 0.882914 T T T
0.981837 0.500000 0.932114 T T T
0.981837 0.500000 0.981314 T T T
0.106837 0.500000 0.661514 T T T
0.106837 0.500000 0.710714 T T T
0.106837 0.500000 0.759914 T T T
0.106837 0.500000 0.809114 T T T
0.106837 0.500000 0.858314 T T T
0.106837 0.500000 0.907514 T T T
0.106837 0.500000 0.956714 T T T
0.148497 0.500000 0.686114 T T T
0.148497 0.500000 0.735314 T T T
0.865217 0.500000 0.001064 T T T
0.015107 0.500000 0.001064 T T T
0.115347 0.500000 0.001084 T T T
0.265107 0.500000 0.001064 T T T
0.365347 0.500000 0.001084 T T T
0.515107 0.500000 0.001064 T T T
0.615347 0.500000 0.001084 T T T
0.765107 0.500000 0.001064 T T T
0.926100 0.500000 0.134310 F F F
0.783520 0.500000 0.134310 F F F
0.640670 0.500000 0.134310 F F F
0.497810 0.500000 0.134310 F F F
0.354950 0.500000 0.134310 F F F
0.212100 0.500000 0.134310 F F F
0.068960 0.500000 0.134310 F F F
0.269916 0.102662 0.559218 T T T
0.087748 0.257649 0.487229 T T T
0.549440 0.339128 0.485558 T T T
0.721290 0.371043 0.526394 T T T
0.756571 0.232240 0.470167 T T T
0.529567 0.331750 0.498094 T T T
0.871262 0.491941 0.475055 T T T
0.750057 0.659291 0.473955 T T T
0.109353 0.574282 0.484144 T T T
0.936192 0.065736 0.588818 T T T
0.650967 0.221851 0.549882 T T T
0.077968 0.359785 0.548650 T T T
0.374040 0.475324 0.530965 T T T
0.934139 0.891431 0.525865 T T T
0.890854 0.874119 0.535471 T T T
0.083175 0.933458 0.494097 T T T
0.478564 0.960913 0.543559 T T T
0.452119 0.673332 0.563049 T T T
0.441709 0.115738 0.627790 T T T
0.212865 0.490331 0.596827 T T T
0.248410 0.531439 0.625828 T T T
0.541526 0.009389 0.575226 T T T
0.439590 0.294650 0.607553 T T T
0.469463 0.936568 0.653110 T T T
0.689495 0.328387 0.650619 T T T
0.223424 0.374177 0.597804 T T T
0.880739 0.358040 0.624230 T T T
0.272938 0.745478 0.618571 T T T
