search
1.0
17.131700 0.000000 0.000000
0.000000 10.000000 0.000000
0.000000 0.000000 50.000000
C H 
227 73 
Selective dynamics
Direct
0.481902 0.500000 0.785752 T T T
0.481902 0.500000 0.834952 T T T
0.481902 0.500000 0.884152 T T T
0.481902 0.500000 0.933352 T T T
0.481902 0.500000 0.982552 T T T
0.606902 0.500000 0.662752 T T T
0.606902 0.500000 0.711952 T T T
0.606902 0.500000 0.761152 T T T
0.606902 0.500000 0.810352 T T T
0.606902 0.500000 0.859552 T T T
0.606902 0.500000 0.908752 T T T
0.606902 0.500000 0.957952 T T T
0.565242 0.500000 0.687352 T T T
0.565242 0.500000 0.736552 T T T
0.565242 0.500000 0.785752 T T T
0.565242 0.500000 0.834952 T T T
0.565242 0.500000 0.884152 T T T
0.565242 0.500000 0.933352 T T T
0.565242 0.500000 0.982552 T T T
0.690242 0.500000 0.662752 T T T
0.690242 0.500000 0.711952 T T T
0.690242 0.500000 0.761152 T T T
0.690242 0.500000 0.810352 T T T
0.690242 0.500000 0.859552 T T T
0.690242 0.500000 0.908752 T T T
0.690242 0.500000 0.957952 T T T
0.731902 0.500000 0.687352 T T T
0.731902 0.500000 0.736552 T T T
0.731902 0.500000 0.785752 T T T
0.731902 0.500000 0.834952 T T T
0.731902 0.500000 0.884152 T T T
0.731902 0.500000 0.933352 T T T
0.731902 0.500000 0.982552 T T T
0.856902 0.500000 0.662752 T T T
0.856902 0.500000 0.711952 T T T
0.856902 0.500000 0.761152 T T T
0.856902 0.500000 0.810352 T T T
0.856902 0.500000 0.859552 T T T
0.856902 0.500000 0.908752 T T T
0.856902 0.500000 0.957952 T T T
0.815242 0.500000 0.687352 T T T
0.815242 0.500000 0.736552 T T T
0.815242 0.500000 0.785752 T T T
0.815242 0.500000 0.834952 T T T
0.815242 0.500000 0.884152 T T T
0.815242 0.500000 0.933352 T T T
0.815242 0.500000 0.982552 T T T
0.940242 0.500000 0.662752 T T T
0.940242 0.500000 0.711952 T T T
0.940242 0.500000 0.761152 T T T
0.940242 0.500000 0.810352 T T T
0.940242 0.500000 0.859552 T T T
0.940242 0.500000 0.908752 T T T
0.940242 0.500000 0.957952 T T T
0.981902 0.500000 0.687352 T T T
0.981902 0.500000 0.736552 T T T
0.981902 0.500000 0.785752 T T T
0.981902 0.500000 0.834952 T T T
0.981902 0.500000 0.884152 T T T
0.981902 0.500000 0.933352 T T T
0.981902 0.500000 0.982552 T T T
0.106902 0.500000 0.662752 T T T
0.106902 0.500000 0.711952 T T T
0.106902 0.500000 0.761152 T T T
0.106902 0.500000 0.810352 T T T
0.106902 0.500000 0.859552 T T T
0.106902 0.500000 0.908752 T T T
0.106902 0.500000 0.957952 T T T
0.065242 0.500000 0.687352 T T T
0.065242 0.500000 0.736552 T T T
0.065242 0.500000 0.785752 T T T
0.065242 0.500000 0.834952 T T T
0.065242 0.500000 0.884152 T T T
0.065242 0.500000 0.933352 T T T
0.065242 0.500000 0.982552 T T T
0.190242 0.500000 0.662752 T T T
0.190242 0.500000 0.711952 T T T
0.190242 0.500000 0.761152 T T T
0.190242 0.500000 0.810352 T T T
0.190242 0.500000 0.859552 T T T
0.190242 0.500000 0.908752 T T T
0.190242 0.500000 0.957952 T T T
0.997670 0.500000 0.171310 F F F
0.997670 0.500000 0.256530 F F F
0.997670 0.500000 0.341750 F F F
0.997670 0.500000 0.426960 F F F
0.997670 0.500000 0.199720 F F F
0.997670 0.500000 0.284930 F F F
0.997670 0.500000 0.370150 F F F
0.997670 0.500000 0.455370 F F F
0.926240 0.500000 0.213920 F F F
0.926240 0.500000 0.299140 F F F
0.926240 0.500000 0.384350 F F F
0.926240 0.500000 0.469570 F F F
0.926240 0.500000 0.157110 F F F
0.926240 0.500000 0.242330 F F F
0.926240 0.500000 0.327540 F F F
0.926240 0.500000 0.412760 F F F
0.854810 0.500000 0.171310 F F F
0.854810 0.500000 0.256530 F F F
0.854810 0.500000 0.341750 F F F
0.854810 0.500000 0.426960 F F F
0.783380 0.500000 0.213920 F F F
0.783380 0.500000 0.299140 F F F
0.783380 0.500000 0.384350 F F F
0.783380 0.500000 0.469570 F F F
0.854810 0.500000 0.199720 F F F
0.854810 0.500000 0.284930 F F F
0.854810 0.500000 0.370150 F F F
0.854810 0.500000 0.455370 F F F
0.783380 0.500000 0.157110 F F F
0.783380 0.500000 0.242330 F F F
0.783380 0.500000 0.327540 F F F
0.783380 0.500000 0.412760 F F F
0.711960 0.500000 0.171310 F F F
0.711960 0.500000 0.256530 F F F
0.711960 0.500000 0.341750 F F F
0.711960 0.500000 0.426960 F F F
0.640530 0.500000 0.213920 F F F
0.640530 0.500000 0.299140 F F F
0.640530 0.500000 0.384350 F F F
0.640530 0.500000 0.469570 F F F
0.711960 0.500000 0.199720 F F F
0.711960 0.500000 0.284930 F F F
0.711960 0.500000 0.370150 F F F
0.711960 0.500000 0.455370 F F F
0.640530 0.500000 0.157110 F F F
0.640530 0.500000 0.242330 F F F
0.640530 0.500000 0.327540 F F F
0.640530 0.500000 0.412760 F F F
0.569100 0.500000 0.171310 F F F
0.569100 0.500000 0.256530 F F F
0.569100 0.500000 0.341750 F F F
0.569100 0.500000 0.426960 F F F
0.497670 0.500000 0.213920 F F F
0.497670 0.500000 0.299140 F F F
0.497670 0.500000 0.384350 F F F
0.497670 0.500000 0.469570 F F F
0.569100 0.500000 0.199720 F F F
0.569100 0.500000 0.284930 F F F
0.569100 0.500000 0.370150 F F F
0.569100 0.500000 0.455370 F F F
0.497670 0.500000 0.157110 F F F
0.497670 0.500000 0.242330 F F F
0.497670 0.500000 0.327540 F F F
0.497670 0.500000 0.412760 F F F
0.426240 0.500000 0.171310 F F F
0.426240 0.500000 0.256530 F F F
0.426240 0.500000 0.341750 F F F
0.426240 0.500000 0.426960 F F F
0.354810 0.500000 0.213920 F F F
0.354810 0.500000 0.299140 F F F
0.354810 0.500000 0.384350 F F F
0.354810 0.500000 0.469570 F F F
0.426240 0.500000 0.199720 F F F
0.426240 0.500000 0.284930 F F F
0.426240 0.500000 0.370150 F F F
0.426240 0.500000 0.455370 F F F
0.354810 0.500000 0.157110 F F F
0.354810 0.500000 0.242330 F F F
0.354810 0.500000 0.327540 F F F
0.354810 0.500000 0.412760 F F F
0.283380 0.500000 0.171310 F F F
0.283380 0.500000 0.256530 F F F
0.283380 0.500000 0.341750 F F F
0.283380 0.500000 0.426960 F F F
0.211960 0.500000 0.213920 F F F
0.211960 0.500000 0.299140 F F F
0.211960 0.500000 0.384350 F F F
0.211960 0.500000 0.469570 F F F
0.283380 0.500000 0.199720 F F F
0.283380 0.500000 0.284930 F F F
0.283380 0.500000 0.370150 F F F
0.283380 0.500000 0.455370 F F F
0.211960 0.500000 0.157110 F F F
0.211960 0.500000 0.242330 F F F
0.211960 0.500000 0.327540 F F F
0.211960 0.500000 0.412760 F F F
0.140530 0.500000 0.171310 F F F
0.140530 0.500000 0.256530 F F F
0.140530 0.500000 0.341750 F F F
0.140530 0.500000 0.426960 F F F
0.069100 0.500000 0.213920 F F F
0.069100 0.500000 0.299140 F F F
0.069100 0.500000 0.384350 F F F
0.069100 0.500000 0.469570 F F F
0.140530 0.500000 0.199720 F F F
0.140530 0.500000 0.284930 F F F
0.140530 0.500000 0.370150 F F F
0.140530 0.500000 0.455370 F F F
0.069100 0.500000 0.157110 F F F
0.069100 0.500000 0.242330 F F F
0.069100 0.500000 0.327540 F F F
0.069100 0.500000 0.412760 F F F
0.414912 0.999806 0.549382 T T T
0.685969 0.600367 0.473780 T T T
0.711203 0.668377 0.492583 T T T
0.444457 0.889870 0.498241 T T T
0.882737 0.432021 0.522801 T T T
0.671280 0.960943 0.494385 T T T
0.438779 0.807638 0.474634 T T T
0.855619 0.550800 0.484220 T T T
0.539944 0.694152 0.478832 T T T
0.707910 0.892879 0.471096 T T T
0.195349 0.029702 0.479669 T T T
0.039005 0.910660 0.564913 T T T
0.495100 0.901790 0.466107 T T T
0.572266 0.808868 0.552766 T T T
0.507422 0.866412 0.568188 T T T
0.494175 0.930439 0.611159 T T T
0.354716 0.984528 0.533728 T T T
0.252028 0.104975 0.595739 T T T
0.662863 0.160392 0.566481 T T T
0.384000 0.159482 0.508867 T T T
0.256138 0.266158 0.551078 T T T
0.963111 0.025144 0.506005 T T T
0.485755 0.186045 0.561273 T T T
0.069875 0.439604 0.617551 T T T
0.422373 0.178772 0.662590 T T T
0.326032 0.182556 0.658195 T T T
0.737796 0.753927 0.641081 T T T
0.888755 0.392671 0.568218 T T T
0.748022 0.239298 0.661210 T T T
0.396249 0.439358 0.660662 T T T
0.580898 0.775491 0.530678 T T T
0.074457 0.488450 0.553182 T T T
0.610190 0.876693 0.574810 T T T
0.231902 0.500000 0.687352 T T T
0.231902 0.500000 0.736552 T T T
0.231902 0.500000 0.785752 T T T
0.231902 0.500000 0.834952 T T T
0.231902 0.500000 0.884152 T T T
0.231902 0.500000 0.933352 T T T
0.231902 0.500000 0.982552 T T T
0.356902 0.500000 0.662752 T T T
0.356902 0.500000 0.711952 T T T
0.356902 0.500000 0.761152 T T T
0.356902 0.500000 0.810352 T T T
0.356902 0.500000 0.859552 T T T
0.356902 0.500000 0.908752 T T T
0.356902 0.500000 0.957952 T T T
0.315242 0.500000 0.687352 T T T
0.315242 0.500000 0.736552 T T T
0.315242 0.500000 0.785752 T T T
0.315242 0.500000 0.834952 T T T
0.315242 0.500000 0.884152 T T T
0.315242 0.500000 0.933352 T T T
0.315242 0.500000 0.982552 T T T
0.440242 0.500000 0.662752 T T T
0.440242 0.500000 0.711952 T T T
0.440242 0.500000 0.761152 T T T
0.440242 0.500000 0.810352 T T T
0.440242 0.500000 0.859552 T T T
0.440242 0.500000 0.908752 T T T
0.440242 0.500000 0.957952 T T T
0.481902 0.500000 0.687352 T T T
0.481902 0.500000 0.736552 T T T
0.198622 0.500000 0.002302 T T T
0.348512 0.500000 0.002302 T T T
0.448752 0.500000 0.002322 T T T
0.598512 0.500000 0.002302 T T T
0.698752 0.500000 0.002322 T T T
0.848512 0.500000 0.002302 T T T
0.948752 0.500000 0.002322 T T T
0.098512 0.500000 0.002302 T T T
0.926100 0.500000 0.134310 F F F
0.783520 0.500000 0.134310 F F F
0.640670 0.500000 0.134310 F F F
0.497810 0.500000 0.134310 F F F
0.354950 0.500000 0.134310 F F F
0.212100 0.500000 0.134310 F F F
0.068960 0.500000 0.134310 F F F
0.310260 0.150926 0.510923 T T T
0.589942 0.718521 0.491648 T T T
0.293389 0.677040 0.545214 T T T
0.442526 0.554598 0.531186 T T T
0.306785 0.279919 0.534936 T T T
0.497803 0.283364 0.544599 T T T
0.235596 0.607444 0.564722 T T T
0.385313 0.493311 0.525603 T T T
0.003188 0.466880 0.540623 T T T
0.354225 0.298243 0.616005 T T T
0.356439 0.187086 0.614719 T T T
0.002708 0.495303 0.500604 T T T
0.059485 0.211943 0.593443 T T T
0.880019 0.832480 0.559639 T T T
0.530917 0.134677 0.554757 T T T
0.299509 0.210614 0.617715 T T T
0.545734 0.960486 0.568203 T T T
0.931798 0.741357 0.584381 T T T
0.460319 0.314232 0.608727 T T T
0.385823 0.290128 0.632282 T T T
0.273558 0.450602 0.640534 T T T
0.068377 0.070987 0.626092 T T T
0.219822 0.911158 0.601431 T T T
0.275279 0.756940 0.633747 T T T
0.677562 0.964546 0.661209 T T T
0.798844 0.757647 0.646707 T T T
0.448544 0.405746 0.616914 T T T
0.945899 0.892983 0.593281 T T T
