search
1.0
17.131700 0.000000 0.000000
0.000000 10.000000 0.000000
0.000000 0.000000 50.000000
C H 
227 73 
Selective dynamics
Direct
0.502551 0.500000 0.784527 T T T
0.502551 0.500000 0.833727 T T T
0.502551 0.500000 0.882927 T T T
0.502551 0.500000 0.932127 T T T
0.502551 0.500000 0.981327 T T T
0.627551 0.500000 0.661527 T T T
0.627551 0.500000 0.710727 T T T
0.627551 0.500000 0.759927 T T T
0.627551 0.500000 0.809127 T T T
0.627551 0.500000 0.858327 T T T
0.627551 0.500000 0.907527 T T T
0.627551 0.500000 0.956727 T T T
0.585891 0.500000 0.686127 T T T
0.585891 0.500000 0.735327 T T T
0.585891 0.500000 0.784527 T T T
0.585891 0.500000 0.833727 T T T
0.585891 0.500000 0.882927 T T T
0.585891 0.500000 0.932127 T T T
0.585891 0.500000 0.981327 T T T
0.710891 0.500000 0.661527 T T T
0.710891 0.500000 0.710727 T T T
0.710891 0.500000 0.759927 T T T
0.710891 0.500000 0.809127 T T T
0.710891 0.500000 0.858327 T T T
0.710891 0.500000 0.907527 T T T
0.710891 0.500000 0.956727 T T T
0.752551 0.500000 0.686127 T T T
0.752551 0.500000 0.735327 T T T
0.752551 0.500000 0.784527 T T T
0.752551 0.500000 0.833727 T T T
0.752551 0.500000 0.882927 T T T
0.752551 0.500000 0.932127 T T T
0.752551 0.500000 0.981327 T T T
0.877551 0.500000 0.661527 T T T
0.877551 0.500000 0.710727 T T T
0.877551 0.500000 0.759927 T T T
0.877551 0.500000 0.809127 T T T
0.877551 0.500000 0.858327 T T T
0.877551 0.500000 0.907527 T T T
0.877551 0.500000 0.956727 T T T
0.835891 0.500000 0.686127 T T T
0.835891 0.500000 0.735327 T T T
0.835891 0.500000 0.784527 T T T
0.835891 0.500000 0.833727 T T T
0.835891 0.500000 0.882927 T T T
0.835891 0.500000 0.932127 T T T
0.835891 0.500000 0.981327 T T T
0.960891 0.500000 0.661527 T T T
0.960891 0.500000 0.710727 T T T
0.960891 0.500000 0.759927 T T T
0.960891 0.500000 0.809127 T T T
0.960891 0.500000 0.858327 T T T
0.960891 0.500000 0.907527 T T T
0.960891 0.500000 0.956727 T T T
0.002551 0.500000 0.686127 T T T
0.002551 0.500000 0.735327 T T T
0.002551 0.500000 0.784527 T T T
0.002551 0.500000 0.833727 T T T
0.002551 0.500000 0.882927 T T T
0.002551 0.500000 0.932127 T T T
0.002551 0.500000 0.981327 T T T
0.127551 0.500000 0.661527 T T T
0.127551 0.500000 0.710727 T T T
0.127551 0.500000 0.759927 T T T
0.127551 0.500000 0.809127 T T T
0.127551 0.500000 0.858327 T T T
0.127551 0.500000 0.907527 T T T
0.127551 0.500000 0.956727 T T T
0.085891 0.500000 0.686127 T T T
0.085891 0.500000 0.735327 T T T
0.085891 0.500000 0.784527 T T T
0.085891 0.500000 0.833727 T T T
0.085891 0.500000 0.882927 T T T
0.085891 0.500000 0.932127 T T T
0.085891 0.500000 0.981327 T T T
0.210891 0.500000 0.661527 T T T
0.210891 0.500000 0.710727 T T T
0.210891 0.500000 0.759927 T T T
0.210891 0.500000 0.809127 T T T
0.210891 0.500000 0.858327 T T T
0.210891 0.500000 0.907527 T T T
0.210891 0.500000 0.956727 T T T
-0.002330 0.500000 0.171310 F F F
-0.002330 0.500000 0.256530 F F F
-0.002330 0.500000 0.341750 F F F
-0.002330 0.500000 0.426960 F F F
-0.002330 0.500000 0.199720 F F F
-0.002330 0.500000 0.284930 F F F
-0.002330 0.500000 0.370150 F F F
-0.002330 0.500000 0.455370 F F F
0.926240 0.500000 0.213920 F F F
0.926240 0.500000 0.299140 F F F
0.926240 0.500000 0.384350 F F F
0.926240 0.500000 0.469570 F F F
0.926240 0.500000 0.157110 F F F
0.926240 0.500000 0.242330 F F F
0.926240 0.500000 0.327540 F F F
0.926240 0.500000 0.412760 F F F
0.854810 0.500000 0.171310 F F F
0.854810 0.500000 0.256530 F F F
0.854810 0.500000 0.341750 F F F
0.854810 0.500000 0.426960 F F F
0.783380 0.500000 0.213920 F F F
0.783380 0.500000 0.299140 F F F
0.783380 0.500000 0.384350 F F F
0.783380 0.500000 0.469570 F F F
0.854810 0.500000 0.199720 F F F
0.854810 0.500000 0.284930 F F F
0.854810 0.500000 0.370150 F F F
0.854810 0.500000 0.455370 F F F
0.783380 0.500000 0.157110 F F F
0.783380 0.500000 0.242330 F F F
0.783380 0.500000 0.327540 F F F
0.783380 0.500000 0.412760 F F F
0.711960 0.500000 0.171310 F F F
0.711960 0.500000 0.256530 F F F
0.711960 0.500000 0.341750 F F F
0.711960 0.500000 0.426960 F F F
0.640530 0.500000 0.213920 F F F
0.640530 0.500000 0.299140 F F F
0.640530 0.500000 0.384350 F F F
0.640530 0.500000 0.469570 F F F
0.711960 0.500000 0.199720 F F F
0.711960 0.500000 0.284930 F F F
0.711960 0.500000 0.370150 F F F
0.711960 0.500000 0.455370 F F F
0.640530 0.500000 0.157110 F F F
0.640530 0.500000 0.242330 F F F
0.640530 0.500000 0.327540 F F F
0.640530 0.500000 0.412760 F F F
0.569100 0.500000 0.171310 F F F
0.569100 0.500000 0.256530 F F F
0.569100 0.500000 0.341750 F F F
0.569100 0.500000 0.426960 F F F
0.497670 0.500000 0.213920 F F F
0.497670 0.500000 0.299140 F F F
0.497670 0.500000 0.384350 F F F
0.497670 0.500000 0.469570 F F F
0.569100 0.500000 0.199720 F F F
0.569100 0.500000 0.284930 F F F
0.569100 0.500000 0.370150 F F F
0.569100 0.500000 0.455370 F F F
0.497670 0.500000 0.157110 F F F
0.497670 0.500000 0.242330 F F F
0.497670 0.500000 0.327540 F F F
0.497670 0.500000 0.412760 F F F
0.426240 0.500000 0.171310 F F F
0.426240 0.500000 0.256530 F F F
0.426240 0.500000 0.341750 F F F
0.426240 0.500000 0.426960 F F F
0.354810 0.500000 0.213920 F F F
0.354810 0.500000 0.299140 F F F
0.354810 0.500000 0.384350 F F F
0.354810 0.500000 0.469570 F F F
0.426240 0.500000 0.199720 F F F
0.426240 0.500000 0.284930 F F F
0.426240 0.500000 0.370150 F F F
0.426240 0.500000 0.455370 F F F
0.354810 0.500000 0.157110 F F F
0.354810 0.500000 0.242330 F F F
0.354810 0.500000 0.327540 F F F
0.354810 0.500000 0.412760 F F F
0.283380 0.500000 0.171310 F F F
0.283380 0.500000 0.256530 F F F
0.283380 0.500000 0.341750 F F F
0.283380 0.500000 0.426960 F F F
0.211960 0.500000 0.213920 F F F
0.211960 0.500000 0.299140 F F F
0.211960 0.500000 0.384350 F F F
0.211960 0.500000 0.469570 F F F
0.283380 0.500000 0.199720 F F F
0.283380 0.500000 0.284930 F F F
0.283380 0.500000 0.370150 F F F
0.283380 0.500000 0.455370 F F F
0.211960 0.500000 0.157110 F F F
0.211960 0.500000 0.242330 F F F
0.211960 0.500000 0.327540 F F F
0.211960 0.500000 0.412760 F F F
0.140530 0.500000 0.171310 F F F
0.140530 0.500000 0.256530 F F F
0.140530 0.500000 0.341750 F F F
0.140530 0.500000 0.426960 F F F
0.069100 0.500000 0.213920 F F F
0.069100 0.500000 0.299140 F F F
0.069100 0.500000 0.384350 F F F
0.069100 0.500000 0.469570 F F F
0.140530 0.500000 0.199720 F F F
0.140530 0.500000 0.284930 F F F
0.140530 0.500000 0.370150 F F F
0.140530 0.500000 0.455370 F F F
0.069100 0.500000 0.157110 F F F
0.069100 0.500000 0.242330 F F F
0.069100 0.500000 0.327540 F F F
0.069100 0.500000 0.412760 F F F
0.383560 0.246888 0.497244 T T T
0.396375 0.458282 0.494617 T T T
0.152572 0.563319 0.516725 T T T
0.027772 0.761992 0.517006 T T T
0.395747 0.901883 0.503176 T T T
0.539827 0.258122 0.482542 T T T
0.427437 0.571961 0.507827 T T T
0.805671 0.693027 0.487387 T T T
0.623601 0.888639 0.481119 T T T
0.563182 0.958983 0.476248 T T T
0.919159 0.984225 0.507976 T T T
0.248368 0.145806 0.548521 T T T
0.227590 0.272346 0.539836 T T T
0.183910 0.398159 0.523244 T T T
0.357229 0.632199 0.599379 T T T
0.419582 0.833769 0.524257 T T T
0.615899 0.072690 0.600131 T T T
0.910144 0.329281 0.586697 T T T
0.454261 0.697422 0.540573 T T T
0.750588 0.848525 0.541305 T T T
0.611324 0.896211 0.531839 T T T
0.443270 0.986619 0.580383 T T T
0.077703 0.250076 0.616012 T T T
0.201471 0.582838 0.635821 T T T
0.079163 0.706834 0.648284 T T T
0.183349 0.913894 0.620643 T T T
0.235691 0.943246 0.602050 T T T
0.656197 0.057260 0.660058 T T T
0.445302 0.808487 0.631669 T T T
0.498966 0.811962 0.612409 T T T
0.381217 0.854261 0.644259 T T T
0.241240 0.893632 0.659999 T T T
0.598445 0.971790 0.655666 T T T
0.252551 0.500000 0.686127 T T T
0.252551 0.500000 0.735327 T T T
0.252551 0.500000 0.784527 T T T
0.252551 0.500000 0.833727 T T T
0.252551 0.500000 0.882927 T T T
0.252551 0.500000 0.932127 T T T
0.252551 0.500000 0.981327 T T T
0.377551 0.500000 0.661527 T T T
0.377551 0.500000 0.710727 T T T
0.377551 0.500000 0.759927 T T T
0.377551 0.500000 0.809127 T T T
0.377551 0.500000 0.858327 T T T
0.377551 0.500000 0.907527 T T T
0.377551 0.500000 0.956727 T T T
0.335891 0.500000 0.686127 T T T
0.335891 0.500000 0.735327 T T T
0.335891 0.500000 0.784527 T T T
0.335891 0.500000 0.833727 T T T
0.335891 0.500000 0.882927 T T T
0.335891 0.500000 0.932127 T T T
0.335891 0.500000 0.981327 T T T
0.460891 0.500000 0.661527 T T T
0.460891 0.500000 0.710727 T T T
0.460891 0.500000 0.759927 T T T
0.460891 0.500000 0.809127 T T T
0.460891 0.500000 0.858327 T T T
0.460891 0.500000 0.907527 T T T
0.460891 0.500000 0.956727 T T T
0.502551 0.500000 0.686127 T T T
0.502551 0.500000 0.735327 T T T
0.219271 0.500000 1.001077 T T T
0.369161 0.500000 1.001077 T T T
0.469401 0.500000 1.001097 T T T
0.619161 0.500000 1.001077 T T T
0.719401 0.500000 1.001097 T T T
0.869161 0.500000 1.001077 T T T
0.969401 0.500000 1.001097 T T T
0.119161 0.500000 1.001077 T T T
0.926100 0.500000 0.134310 F F F
0.783520 0.500000 0.134310 F F F
0.640670 0.500000 0.134310 F F F
0.497810 0.500000 0.134310 F F F
0.354950 0.500000 0.134310 F F F
0.212100 0.500000 0.134310 F F F
0.068960 0.500000 0.134310 F F F
0.243412 0.168378 0.501242 T T T
0.578468 0.210878 0.497095 T T T
0.173919 0.617505 0.501200 T T T
0.230207 0.725121 0.515924 T T T
0.833109 0.181135 0.469996 T T T
0.986152 0.262541 0.517911 T T T
0.712870 0.480938 0.479544 T T T
0.607422 0.783375 0.485684 T T T
0.911460 0.845522 0.504495 T T T
0.058501 0.056961 0.529666 T T T
0.143178 0.083467 0.538712 T T T
0.490846 0.296932 0.525419 T T T
0.193007 0.543222 0.545868 T T T
0.522979 0.236980 0.531607 T T T
0.652732 0.599379 0.536655 T T T
0.652897 0.622705 0.522474 T T T
0.504186 0.779592 0.542263 T T T
0.756663 0.973927 0.536926 T T T
0.091251 0.117194 0.618288 T T T
0.114819 0.338102 0.605788 T T T
0.278179 0.485796 0.561486 T T T
0.080493 0.573991 0.648172 T T T
0.310398 0.612794 0.613533 T T T
0.730857 0.259730 0.634615 T T T
0.868365 0.451419 0.638659 T T T
0.381622 0.517749 0.595522 T T T
0.544944 0.629329 0.564117 T T T
0.760119 0.804452 0.561913 T T T
