search
1.0
17.131700 0.000000 0.000000
0.000000 10.000000 0.000000
0.000000 0.000000 50.000000
C H 
227 73 
Selective dynamics
Direct
0.376924 0.500000 0.784669 T T T
0.376924 0.500000 0.833869 T T T
0.376924 0.500000 0.883069 T T T
0.376924 0.500000 0.932269 T T T
0.376924 0.500000 0.981469 T T T
0.501924 0.500000 0.661669 T T T
0.501924 0.500000 0.710869 T T T
0.501924 0.500000 0.760069 T T T
0.501924 0.500000 0.809269 T T T
0.501924 0.500000 0.858469 T T T
0.501924 0.500000 0.907669 T T T
0.501924 0.500000 0.956869 T T T
0.460264 0.500000 0.686269 T T T
0.460264 0.500000 0.735469 T T T
0.460264 0.500000 0.784669 T T T
0.460264 0.500000 0.833869 T T T
0.460264 0.500000 0.883069 T T T
0.460264 0.500000 0.932269 T T T
0.460264 0.500000 0.981469 T T T
0.585264 0.500000 0.661669 T T T
0.585264 0.500000 0.710869 T T T
0.585264 0.500000 0.760069 T T T
0.585264 0.500000 0.809269 T T T
0.585264 0.500000 0.858469 T T T
0.585264 0.500000 0.907669 T T T
0.585264 0.500000 0.956869 T T T
0.626924 0.500000 0.686269 T T T
0.626924 0.500000 0.735469 T T T
0.626924 0.500000 0.784669 T T T
0.626924 0.500000 0.833869 T T T
0.626924 0.500000 0.883069 T T T
0.626924 0.500000 0.932269 T T T
0.626924 0.500000 0.981469 T T T
0.751924 0.500000 0.661669 T T T
0.751924 0.500000 0.710869 T T T
0.751924 0.500000 0.760069 T T T
0.751924 0.500000 0.809269 T T T
0.751924 0.500000 0.858469 T T T
0.751924 0.500000 0.907669 T T T
0.751924 0.500000 0.956869 T T T
0.710264 0.500000 0.686269 T T T
0.710264 0.500000 0.735469 T T T
0.710264 0.500000 0.784669 T T T
0.710264 0.500000 0.833869 T T T
0.710264 0.500000 0.883069 T T T
0.710264 0.500000 0.932269 T T T
0.710264 0.500000 0.981469 T T T
0.835264 0.500000 0.661669 T T T
0.835264 0.500000 0.710869 T T T
0.835264 0.500000 0.760069 T T T
0.835264 0.500000 0.809269 T T T
0.835264 0.500000 0.858469 T T T
0.835264 0.500000 0.907669 T T T
0.835264 0.500000 0.956869 T T T
0.876924 0.500000 0.686269 T T T
0.876924 0.500000 0.735469 T T T
0.876924 0.500000 0.784669 T T T
0.876924 0.500000 0.833869 T T T
0.876924 0.500000 0.883069 T T T
0.876924 0.500000 0.932269 T T T
0.876924 0.500000 0.981469 T T T
0.001924 0.500000 0.661669 T T T
0.001924 0.500000 0.710869 T T T
0.001924 0.500000 0.760069 T T T
0.001924 0.500000 0.809269 T T T
0.001924 0.500000 0.858469 T T T
0.001924 0.500000 0.907669 T T T
0.001924 0.500000 0.956869 T T T
0.960264 0.500000 0.686269 T T T
0.960264 0.500000 0.735469 T T T
0.960264 0.500000 0.784669 T T T
0.960264 0.500000 0.833869 T T T
0.960264 0.500000 0.883069 T T T
0.960264 0.500000 0.932269 T T T
0.960264 0.500000 0.981469 T T T
0.085264 0.500000 0.661669 T T T
0.085264 0.500000 0.710869 T T T
0.085264 0.500000 0.760069 T T T
0.085264 0.500000 0.809269 T T T
0.085264 0.500000 0.858469 T T T
0.085264 0.500000 0.907669 T T T
0.085264 0.500000 0.956869 T T T
0.997670 0.500000 0.171310 F F F
0.997670 0.500000 0.256530 F F F
0.997670 0.500000 0.341750 F F F
0.997670 0.500000 0.426960 F F F
0.997670 0.500000 0.199720 F F F
0.997670 0.500000 0.284930 F F F
0.997670 0.500000 0.370150 F F F
0.997670 0.500000 0.455370 F F F
0.926240 0.500000 0.213920 F F F
0.926240 0.500000 0.299140 F F F
0.926240 0.500000 0.384350 F F F
0.926240 0.500000 0.469570 F F F
0.926240 0.500000 0.157110 F F F
0.926240 0.500000 0.242330 F F F
0.926240 0.500000 0.327540 F F F
0.926240 0.500000 0.412760 F F F
0.854810 0.500000 0.171310 F F F
0.854810 0.500000 0.256530 F F F
0.854810 0.500000 0.341750 F F F
0.854810 0.500000 0.426960 F F F
0.783380 0.500000 0.213920 F F F
0.783380 0.500000 0.299140 F F F
0.783380 0.500000 0.384350 F F F
0.783380 0.500000 0.469570 F F F
0.854810 0.500000 0.199720 F F F
0.854810 0.500000 0.284930 F F F
0.854810 0.500000 0.370150 F F F
0.854810 0.500000 0.455370 F F F
0.783380 0.500000 0.157110 F F F
0.783380 0.500000 0.242330 F F F
0.783380 0.500000 0.327540 F F F
0.783380 0.500000 0.412760 F F F
0.711960 0.500000 0.171310 F F F
0.711960 0.500000 0.256530 F F F
0.711960 0.500000 0.341750 F F F
0.711960 0.500000 0.426960 F F F
0.640530 0.500000 0.213920 F F F
0.640530 0.500000 0.299140 F F F
0.640530 0.500000 0.384350 F F F
0.640530 0.500000 0.469570 F F F
0.711960 0.500000 0.199720 F F F
0.711960 0.500000 0.284930 F F F
0.711960 0.500000 0.370150 F F F
0.711960 0.500000 0.455370 F F F
0.640530 0.500000 0.157110 F F F
0.640530 0.500000 0.242330 F F F
0.640530 0.500000 0.327540 F F F
0.640530 0.500000 0.412760 F F F
0.569100 0.500000 0.171310 F F F
0.569100 0.500000 0.256530 F F F
0.569100 0.500000 0.341750 F F F
0.569100 0.500000 0.426960 F F F
0.497670 0.500000 0.213920 F F F
0.497670 0.500000 0.299140 F F F
0.497670 0.500000 0.384350 F F F
0.497670 0.500000 0.469570 F F F
0.569100 0.500000 0.199720 F F F
0.569100 0.500000 0.284930 F F F
0.569100 0.500000 0.370150 F F F
0.569100 0.500000 0.455370 F F F
0.497670 0.500000 0.157110 F F F
0.497670 0.500000 0.242330 F F F
0.497670 0.500000 0.327540 F F F
0.497670 0.500000 0.412760 F F F
0.426240 0.500000 0.171310 F F F
0.426240 0.500000 0.256530 F F F
0.426240 0.500000 0.341750 F F F
0.426240 0.500000 0.426960 F F F
0.354810 0.500000 0.213920 F F F
0.354810 0.500000 0.299140 F F F
0.354810 0.500000 0.384350 F F F
0.354810 0.500000 0.469570 F F F
0.426240 0.500000 0.199720 F F F
0.426240 0.500000 0.284930 F F F
0.426240 0.500000 0.370150 F F F
0.426240 0.500000 0.455370 F F F
0.354810 0.500000 0.157110 F F F
0.354810 0.500000 0.242330 F F F
0.354810 0.500000 0.327540 F F F
0.354810 0.500000 0.412760 F F F
0.283380 0.500000 0.171310 F F F
0.283380 0.500000 0.256530 F F F
0.283380 0.500000 0.341750 F F F
0.283380 0.500000 0.426960 F F F
0.211960 0.500000 0.213920 F F F
0.211960 0.500000 0.299140 F F F
0.211960 0.500000 0.384350 F F F
0.211960 0.500000 0.469570 F F F
0.283380 0.500000 0.199720 F F F
0.283380 0.500000 0.284930 F F F
0.283380 0.500000 0.370150 F F F
0.283380 0.500000 0.455370 F F F
0.211960 0.500000 0.157110 F F F
0.211960 0.500000 0.242330 F F F
0.211960 0.500000 0.327540 F F F
0.211960 0.500000 0.412760 F F F
0.140530 0.500000 0.171310 F F F
0.140530 0.500000 0.256530 F F F
0.140530 0.500000 0.341750 F F F
0.140530 0.500000 0.426960 F F F
0.069100 0.500000 0.213920 F F F
0.069100 0.500000 0.299140 F F F
0.069100 0.500000 0.384350 F F F
0.069100 0.500000 0.469570 F F F
0.140530 0.500000 0.199720 F F F
0.140530 0.500000 0.284930 F F F
0.140530 0.500000 0.370150 F F F
0.140530 0.500000 0.455370 F F F
0.069100 0.500000 0.157110 F F F
0.069100 0.500000 0.242330 F F F
0.069100 0.500000 0.327540 F F F
0.069100 0.500000 0.412760 F F F
0.400459 0.309702 0.532793 T T T
0.030035 0.688444 0.639176 T T T
0.764550 0.834493 0.571027 T T T
0.749680 0.128726 0.655184 T T T
0.666282 0.566020 0.507872 T T T
0.926769 0.799140 0.648431 T T T
0.680304 0.240419 0.515393 T T T
0.461366 0.112085 0.626311 T T T
0.838177 0.485717 0.603016 T T T
0.832703 0.092189 0.505854 T T T
0.765057 0.076779 0.516950 T T T
0.720283 0.143285 0.556541 T T T
0.720463 0.893774 0.505425 T T T
0.919366 0.337970 0.513248 T T T
0.655828 0.286310 0.654093 T T T
0.588940 0.080098 0.607587 T T T
0.909853 0.663400 0.634538 T T T
0.205882 0.904427 0.509780 T T T
0.460923 0.127976 0.569017 T T T
0.920767 0.306196 0.659672 T T T
0.206933 0.106110 0.485447 T T T
0.742911 0.346256 0.586969 T T T
0.233387 0.396987 0.564864 T T T
0.683362 0.744943 0.634360 T T T
0.153119 0.961632 0.544212 T T T
0.965556 0.158552 0.548411 T T T
0.319203 0.749242 0.647972 T T T
0.820987 0.834076 0.621424 T T T
0.965911 0.421035 0.526695 T T T
0.438581 0.565895 0.613777 T T T
0.389591 0.110488 0.559039 T T T
0.409654 0.648248 0.482205 T T T
0.387962 0.048575 0.495374 T T T
0.126924 0.500000 0.686269 T T T
0.126924 0.500000 0.735469 T T T
0.126924 0.500000 0.784669 T T T
0.126924 0.500000 0.833869 T T T
0.126924 0.500000 0.883069 T T T
0.126924 0.500000 0.932269 T T T
0.126924 0.500000 0.981469 T T T
0.251924 0.500000 0.661669 T T T
0.251924 0.500000 0.710869 T T T
0.251924 0.500000 0.760069 T T T
0.251924 0.500000 0.809269 T T T
0.251924 0.500000 0.858469 T T T
0.251924 0.500000 0.907669 T T T
0.251924 0.500000 0.956869 T T T
0.210264 0.500000 0.686269 T T T
0.210264 0.500000 0.735469 T T T
0.210264 0.500000 0.784669 T T T
0.210264 0.500000 0.833869 T T T
0.210264 0.500000 0.883069 T T T
0.210264 0.500000 0.932269 T T T
0.210264 0.500000 0.981469 T T T
0.335264 0.500000 0.661669 T T T
0.335264 0.500000 0.710869 T T T
0.335264 0.500000 0.760069 T T T
0.335264 0.500000 0.809269 T T T
0.335264 0.500000 0.858469 T T T
0.335264 0.500000 0.907669 T T T
0.335264 0.500000 0.956869 T T T
0.376924 0.500000 0.686269 T T T
0.376924 0.500000 0.735469 T T T
0.093644 0.500000 0.001219 T T T
0.243534 0.500000 0.001219 T T T
0.343774 0.500000 0.001239 T T T
0.493534 0.500000 0.001219 T T T
0.593774 0.500000 0.001239 T T T
0.743534 0.500000 0.001219 T T T
0.843774 0.500000 0.001239 T T T
0.993534 0.500000 0.001219 T T T
0.926100 0.500000 0.134310 F F F
0.783520 0.500000 0.134310 F F F
0.640670 0.500000 0.134310 F F F
0.497810 0.500000 0.134310 F F F
0.354950 0.500000 0.134310 F F F
0.212100 0.500000 0.134310 F F F
0.068960 0.500000 0.134310 F F F
0.391876 0.661382 0.547917 T T T
0.189569 0.499582 0.489770 T T T
0.866002 0.481271 0.644871 T T T
0.863661 0.052373 0.651549 T T T
0.284783 0.614619 0.645688 T T T
0.344295 0.658237 0.554971 T T T
0.232758 0.490273 0.531860 T T T
0.193185 0.077934 0.583336 T T T
0.961853 0.999969 0.498496 T T T
0.186312 0.318317 0.565706 T T T
0.057263 0.128971 0.657197 T T T
0.919643 0.740586 0.507073 T T T
0.367384 0.258537 0.637012 T T T
0.680971 0.527839 0.572925 T T T
0.414101 0.051389 0.474190 T T T
0.590652 0.042158 0.646833 T T T
0.628339 0.211055 0.473273 T T T
0.490230 0.474914 0.490762 T T T
0.226683 0.190829 0.500013 T T T
0.962649 0.918984 0.561726 T T T
0.252429 0.158203 0.595497 T T T
0.031404 0.511503 0.581958 T T T
0.059434 0.426151 0.484520 T T T
0.325099 0.030115 0.490296 T T T
0.805900 0.528447 0.558003 T T T
0.802677 0.929891 0.567184 T T T
0.159728 0.751493 0.555006 T T T
0.135999 0.038949 0.585460 T T T
