search
1.0
17.131700 0.000000 0.000000
0.000000 10.000000 0.000000
0.000000 0.000000 50.000000
C H 
227 73 
Selective dynamics
Direct
0.154254 0.500000 0.791826 T T T
0.154254 0.500000 0.841026 T T T
0.154254 0.500000 0.890226 T T T
0.154254 0.500000 0.939426 T T T
0.154254 0.500000 0.988626 T T T
0.279254 0.500000 0.668826 T T T
0.279254 0.500000 0.718026 T T T
0.279254 0.500000 0.767226 T T T
0.279254 0.500000 0.816426 T T T
0.279254 0.500000 0.865626 T T T
0.279254 0.500000 0.914826 T T T
0.279254 0.500000 0.964026 T T T
0.237594 0.500000 0.693426 T T T
0.237594 0.500000 0.742626 T T T
0.237594 0.500000 0.791826 T T T
0.237594 0.500000 0.841026 T T T
0.237594 0.500000 0.890226 T T T
0.237594 0.500000 0.939426 T T T
0.237594 0.500000 0.988626 T T T
0.362594 0.500000 0.668826 T T T
0.362594 0.500000 0.718026 T T T
0.362594 0.500000 0.767226 T T T
0.362594 0.500000 0.816426 T T T
0.362594 0.500000 0.865626 T T T
0.362594 0.500000 0.914826 T T T
0.362594 0.500000 0.964026 T T T
0.404254 0.500000 0.693426 T T T
0.404254 0.500000 0.742626 T T T
0.404254 0.500000 0.791826 T T T
0.404254 0.500000 0.841026 T T T
0.404254 0.500000 0.890226 T T T
0.404254 0.500000 0.939426 T T T
0.404254 0.500000 0.988626 T T T
0.529254 0.500000 0.668826 T T T
0.529254 0.500000 0.718026 T T T
0.529254 0.500000 0.767226 T T T
0.529254 0.500000 0.816426 T T T
0.529254 0.500000 0.865626 T T T
0.529254 0.500000 0.914826 T T T
0.529254 0.500000 0.964026 T T T
0.487594 0.500000 0.693426 T T T
0.487594 0.500000 0.742626 T T T
0.487594 0.500000 0.791826 T T T
0.487594 0.500000 0.841026 T T T
0.487594 0.500000 0.890226 T T T
0.487594 0.500000 0.939426 T T T
0.487594 0.500000 0.988626 T T T
0.612594 0.500000 0.668826 T T T
0.612594 0.500000 0.718026 T T T
0.612594 0.500000 0.767226 T T T
0.612594 0.500000 0.816426 T T T
0.612594 0.500000 0.865626 T T T
0.612594 0.500000 0.914826 T T T
0.612594 0.500000 0.964026 T T T
0.654254 0.500000 0.693426 T T T
0.654254 0.500000 0.742626 T T T
0.654254 0.500000 0.791826 T T T
0.654254 0.500000 0.841026 T T T
0.654254 0.500000 0.890226 T T T
0.654254 0.500000 0.939426 T T T
0.654254 0.500000 0.988626 T T T
0.779254 0.500000 0.668826 T T T
0.779254 0.500000 0.718026 T T T
0.779254 0.500000 0.767226 T T T
0.779254 0.500000 0.816426 T T T
0.779254 0.500000 0.865626 T T T
0.779254 0.500000 0.914826 T T T
0.779254 0.500000 0.964026 T T T
0.737594 0.500000 0.693426 T T T
0.737594 0.500000 0.742626 T T T
0.737594 0.500000 0.791826 T T T
0.737594 0.500000 0.841026 T T T
0.737594 0.500000 0.890226 T T T
0.737594 0.500000 0.939426 T T T
0.737594 0.500000 0.988626 T T T
0.862594 0.500000 0.668826 T T T
0.862594 0.500000 0.718026 T T T
0.862594 0.500000 0.767226 T T T
0.862594 0.500000 0.816426 T T T
0.862594 0.500000 0.865626 T T T
0.862594 0.500000 0.914826 T T T
0.862594 0.500000 0.964026 T T T
0.997670 0.500000 0.171310 F F F
0.997670 0.500000 0.256530 F F F
0.997670 0.500000 0.341750 F F F
0.997670 0.500000 0.426960 F F F
0.997670 0.500000 0.199720 F F F
0.997670 0.500000 0.284930 F F F
0.997670 0.500000 0.370150 F F F
0.997670 0.500000 0.455370 F F F
0.926240 0.500000 0.213920 F F F
0.926240 0.500000 0.299140 F F F
0.926240 0.500000 0.384350 F F F
0.926240 0.500000 0.469570 F F F
0.926240 0.500000 0.157110 F F F
0.926240 0.500000 0.242330 F F F
0.926240 0.500000 0.327540 F F F
0.926240 0.500000 0.412760 F F F
0.854810 0.500000 0.171310 F F F
0.854810 0.500000 0.256530 F F F
0.854810 0.500000 0.341750 F F F
0.854810 0.500000 0.426960 F F F
0.783380 0.500000 0.213920 F F F
0.783380 0.500000 0.299140 F F F
0.783380 0.500000 0.384350 F F F
0.783380 0.500000 0.469570 F F F
0.854810 0.500000 0.199720 F F F
0.854810 0.500000 0.284930 F F F
0.854810 0.500000 0.370150 F F F
0.854810 0.500000 0.455370 F F F
0.783380 0.500000 0.157110 F F F
0.783380 0.500000 0.242330 F F F
0.783380 0.500000 0.327540 F F F
0.783380 0.500000 0.412760 F F F
0.711960 0.500000 0.171310 F F F
0.711960 0.500000 0.256530 F F F
0.711960 0.500000 0.341750 F F F
0.711960 0.500000 0.426960 F F F
0.640530 0.500000 0.213920 F F F
0.640530 0.500000 0.299140 F F F
0.640530 0.500000 0.384350 F F F
0.640530 0.500000 0.469570 F F F
0.711960 0.500000 0.199720 F F F
0.711960 0.500000 0.284930 F F F
0.711960 0.500000 0.370150 F F F
0.711960 0.500000 0.455370 F F F
0.640530 0.500000 0.157110 F F F
0.640530 0.500000 0.242330 F F F
0.640530 0.500000 0.327540 F F F
0.640530 0.500000 0.412760 F F F
0.569100 0.500000 0.171310 F F F
0.569100 0.500000 0.256530 F F F
0.569100 0.500000 0.341750 F F F
0.569100 0.500000 0.426960 F F F
0.497670 0.500000 0.213920 F F F
0.497670 0.500000 0.299140 F F F
0.497670 0.500000 0.384350 F F F
0.497670 0.500000 0.469570 F F F
0.569100 0.500000 0.199720 F F F
0.569100 0.500000 0.284930 F F F
0.569100 0.500000 0.370150 F F F
0.569100 0.500000 0.455370 F F F
0.497670 0.500000 0.157110 F F F
0.497670 0.500000 0.242330 F F F
0.497670 0.500000 0.327540 F F F
0.497670 0.500000 0.412760 F F F
0.426240 0.500000 0.171310 F F F
0.426240 0.500000 0.256530 F F F
0.426240 0.500000 0.341750 F F F
0.426240 0.500000 0.426960 F F F
0.354810 0.500000 0.213920 F F F
0.354810 0.500000 0.299140 F F F
0.354810 0.500000 0.384350 F F F
0.354810 0.500000 0.469570 F F F
0.426240 0.500000 0.199720 F F F
0.426240 0.500000 0.284930 F F F
0.426240 0.500000 0.370150 F F F
0.426240 0.500000 0.455370 F F F
0.354810 0.500000 0.157110 F F F
0.354810 0.500000 0.242330 F F F
0.354810 0.500000 0.327540 F F F
0.354810 0.500000 0.412760 F F F
0.283380 0.500000 0.171310 F F F
0.283380 0.500000 0.256530 F F F
0.283380 0.500000 0.341750 F F F
0.283380 0.500000 0.426960 F F F
0.211960 0.500000 0.213920 F F F
0.211960 0.500000 0.299140 F F F
0.211960 0.500000 0.384350 F F F
0.211960 0.500000 0.469570 F F F
0.283380 0.500000 0.199720 F F F
0.283380 0.500000 0.284930 F F F
0.283380 0.500000 0.370150 F F F
0.283380 0.500000 0.455370 F F F
0.211960 0.500000 0.157110 F F F
0.211960 0.500000 0.242330 F F F
0.211960 0.500000 0.327540 F F F
0.211960 0.500000 0.412760 F F F
0.140530 0.500000 0.171310 F F F
0.140530 0.500000 0.256530 F F F
0.140530 0.500000 0.341750 F F F
0.140530 0.500000 0.426960 F F F
0.069100 0.500000 0.213920 F F F
0.069100 0.500000 0.299140 F F F
0.069100 0.500000 0.384350 F F F
0.069100 0.500000 0.469570 F F F
0.140530 0.500000 0.199720 F F F
0.140530 0.500000 0.284930 F F F
0.140530 0.500000 0.370150 F F F
0.140530 0.500000 0.455370 F F F
0.069100 0.500000 0.157110 F F F
0.069100 0.500000 0.242330 F F F
0.069100 0.500000 0.327540 F F F
0.069100 0.500000 0.412760 F F F
0.484739 0.111595 0.526173 T T T
0.561275 0.245585 0.488605 T T T
0.541976 0.467217 0.518699 T T T
0.306983 0.862875 0.499067 T T T
0.471301 0.901951 0.512184 T T T
0.964493 0.123595 0.480287 T T T
0.891127 0.131870 0.506498 T T T
0.894782 0.396159 0.546793 T T T
0.756945 0.531766 0.492002 T T T
0.657447 0.764866 0.516283 T T T
0.792819 0.883764 0.539041 T T T
0.340265 0.042682 0.562784 T T T
0.274361 0.082240 0.586361 T T T
0.122072 0.109635 0.569918 T T T
0.286163 0.175251 0.566571 T T T
0.216459 0.568004 0.609193 T T T
0.388185 0.011941 0.583151 T T T
0.532454 0.159615 0.586714 T T T
0.954673 0.317409 0.569009 T T T
0.922406 0.889123 0.561685 T T T
0.573498 0.958568 0.580798 T T T
0.801164 0.989247 0.558117 T T T
0.172740 0.038163 0.628300 T T T
0.405502 0.400803 0.658847 T T T
0.493379 0.479580 0.629304 T T T
0.158171 0.539937 0.668740 T T T
0.490097 0.732853 0.612619 T T T
0.610766 0.095298 0.638043 T T T
0.666486 0.225857 0.649459 T T T
0.603032 0.280279 0.657252 T T T
0.921723 0.367266 0.663949 T T T
0.825513 0.553810 0.651654 T T T
0.995244 0.948287 0.648651 T T T
0.904254 0.500000 0.693426 T T T
0.904254 0.500000 0.742626 T T T
0.904254 0.500000 0.791826 T T T
0.904254 0.500000 0.841026 T T T
0.904254 0.500000 0.890226 T T T
0.904254 0.500000 0.939426 T T T
0.904254 0.500000 0.988626 T T T
0.029254 0.500000 0.668826 T T T
0.029254 0.500000 0.718026 T T T
0.029254 0.500000 0.767226 T T T
0.029254 0.500000 0.816426 T T T
0.029254 0.500000 0.865626 T T T
0.029254 0.500000 0.914826 T T T
0.029254 0.500000 0.964026 T T T
0.987594 0.500000 0.693426 T T T
0.987594 0.500000 0.742626 T T T
0.987594 0.500000 0.791826 T T T
0.987594 0.500000 0.841026 T T T
0.987594 0.500000 0.890226 T T T
0.987594 0.500000 0.939426 T T T
0.987594 0.500000 0.988626 T T T
0.112594 0.500000 0.668826 T T T
0.112594 0.500000 0.718026 T T T
0.112594 0.500000 0.767226 T T T
0.112594 0.500000 0.816426 T T T
0.112594 0.500000 0.865626 T T T
0.112594 0.500000 0.914826 T T T
0.112594 0.500000 0.964026 T T T
0.154254 0.500000 0.693426 T T T
0.154254 0.500000 0.742626 T T T
0.870974 0.500000 0.008376 T T T
0.020864 0.500000 0.008376 T T T
0.121104 0.500000 0.008396 T T T
0.270864 0.500000 0.008376 T T T
0.371104 0.500000 0.008396 T T T
0.520864 0.500000 0.008376 T T T
0.621104 0.500000 0.008396 T T T
0.770864 0.500000 0.008376 T T T
0.926100 0.500000 0.134310 F F F
0.783520 0.500000 0.134310 F F F
0.640670 0.500000 0.134310 F F F
0.497810 0.500000 0.134310 F F F
0.354950 0.500000 0.134310 F F F
0.212100 0.500000 0.134310 F F F
0.068960 0.500000 0.134310 F F F
0.326731 0.018475 0.516033 T T T
0.168221 0.596555 0.495151 T T T
0.637401 0.911242 0.508833 T T T
0.413648 0.915097 0.507551 T T T
0.809128 0.293052 0.491244 T T T
0.657351 0.535104 0.510665 T T T
0.689969 0.662678 0.506896 T T T
0.710811 0.823450 0.483008 T T T
0.963317 0.991926 0.502128 T T T
0.065539 0.214213 0.573771 T T T
0.461294 0.239264 0.580956 T T T
0.216521 0.372965 0.530359 T T T
0.559782 0.819995 0.567533 T T T
0.831087 0.092976 0.572732 T T T
0.844053 0.134136 0.525967 T T T
0.970500 0.231587 0.522365 T T T
0.960224 0.255384 0.532182 T T T
0.800242 0.740991 0.532616 T T T
0.342184 0.191944 0.601417 T T T
0.249080 0.698127 0.610144 T T T
0.429879 0.837329 0.587393 T T T
0.332139 0.886932 0.590978 T T T
0.467143 0.990159 0.613038 T T T
0.675935 0.135075 0.661677 T T T
0.960941 0.135104 0.650752 T T T
0.912593 0.367316 0.590408 T T T
0.767885 0.415706 0.641628 T T T
0.469951 0.910301 0.592302 T T T
