search
1.0
17.131700 0.000000 0.000000
0.000000 10.000000 0.000000
0.000000 0.000000 50.000000
C H 
227 73 
Selective dynamics
Direct
0.359362 0.500000 0.784641 T T T
0.359362 0.500000 0.833841 T T T
0.359362 0.500000 0.883041 T T T
0.359362 0.500000 0.932241 T T T
0.359362 0.500000 0.981441 T T T
0.484362 0.500000 0.661641 T T T
0.484362 0.500000 0.710841 T T T
0.484362 0.500000 0.760041 T T T
0.484362 0.500000 0.809241 T T T
0.484362 0.500000 0.858441 T T T
0.484362 0.500000 0.907641 T T T
0.484362 0.500000 0.956841 T T T
0.442702 0.500000 0.686241 T T T
0.442702 0.500000 0.735441 T T T
0.442702 0.500000 0.784641 T T T
0.442702 0.500000 0.833841 T T T
0.442702 0.500000 0.883041 T T T
0.442702 0.500000 0.932241 T T T
0.442702 0.500000 0.981441 T T T
0.567702 0.500000 0.661641 T T T
0.567702 0.500000 0.710841 T T T
0.567702 0.500000 0.760041 T T T
0.567702 0.500000 0.809241 T T T
0.567702 0.500000 0.858441 T T T
0.567702 0.500000 0.907641 T T T
0.567702 0.500000 0.956841 T T T
0.609362 0.500000 0.686241 T T T
0.609362 0.500000 0.735441 T T T
0.609362 0.500000 0.784641 T T T
0.609362 0.500000 0.833841 T T T
0.609362 0.500000 0.883041 T T T
0.609362 0.500000 0.932241 T T T
0.609362 0.500000 0.981441 T T T
0.734362 0.500000 0.661641 T T T
0.734362 0.500000 0.710841 T T T
0.734362 0.500000 0.760041 T T T
0.734362 0.500000 0.809241 T T T
0.734362 0.500000 0.858441 T T T
0.734362 0.500000 0.907641 T T T
0.734362 0.500000 0.956841 T T T
0.692702 0.500000 0.686241 T T T
0.692702 0.500000 0.735441 T T T
0.692702 0.500000 0.784641 T T T
0.692702 0.500000 0.833841 T T T
0.692702 0.500000 0.883041 T T T
0.692702 0.500000 0.932241 T T T
0.692702 0.500000 0.981441 T T T
0.817702 0.500000 0.661641 T T T
0.817702 0.500000 0.710841 T T T
0.817702 0.500000 0.760041 T T T
0.817702 0.500000 0.809241 T T T
0.817702 0.500000 0.858441 T T T
0.817702 0.500000 0.907641 T T T
0.817702 0.500000 0.956841 T T T
0.859362 0.500000 0.686241 T T T
0.859362 0.500000 0.735441 T T T
0.859362 0.500000 0.784641 T T T
0.859362 0.500000 0.833841 T T T
0.859362 0.500000 0.883041 T T T
0.859362 0.500000 0.932241 T T T
0.859362 0.500000 0.981441 T T T
0.984362 0.500000 0.661641 T T T
0.984362 0.500000 0.710841 T T T
0.984362 0.500000 0.760041 T T T
0.984362 0.500000 0.809241 T T T
0.984362 0.500000 0.858441 T T T
0.984362 0.500000 0.907641 T T T
0.984362 0.500000 0.956841 T T T
0.942702 0.500000 0.686241 T T T
0.942702 0.500000 0.735441 T T T
0.942702 0.500000 0.784641 T T T
0.942702 0.500000 0.833841 T T T
0.942702 0.500000 0.883041 T T T
0.942702 0.500000 0.932241 T T T
0.942702 0.500000 0.981441 T T T
0.067702 0.500000 0.661641 T T T
0.067702 0.500000 0.710841 T T T
0.067702 0.500000 0.760041 T T T
0.067702 0.500000 0.809241 T T T
0.067702 0.500000 0.858441 T T T
0.067702 0.500000 0.907641 T T T
0.067702 0.500000 0.956841 T T T
0.997670 0.500000 0.171310 F F F
0.997670 0.500000 0.256530 F F F
0.997670 0.500000 0.341750 F F F
0.997670 0.500000 0.426960 F F F
0.997670 0.500000 0.199720 F F F
0.997670 0.500000 0.284930 F F F
0.997670 0.500000 0.370150 F F F
0.997670 0.500000 0.455370 F F F
0.926240 0.500000 0.213920 F F F
0.926240 0.500000 0.299140 F F F
0.926240 0.500000 0.384350 F F F
0.926240 0.500000 0.469570 F F F
0.926240 0.500000 0.157110 F F F
0.926240 0.500000 0.242330 F F F
0.926240 0.500000 0.327540 F F F
0.926240 0.500000 0.412760 F F F
0.854810 0.500000 0.171310 F F F
0.854810 0.500000 0.256530 F F F
0.854810 0.500000 0.341750 F F F
0.854810 0.500000 0.426960 F F F
0.783380 0.500000 0.213920 F F F
0.783380 0.500000 0.299140 F F F
0.783380 0.500000 0.384350 F F F
0.783380 0.500000 0.469570 F F F
0.854810 0.500000 0.199720 F F F
0.854810 0.500000 0.284930 F F F
0.854810 0.500000 0.370150 F F F
0.854810 0.500000 0.455370 F F F
0.783380 0.500000 0.157110 F F F
0.783380 0.500000 0.242330 F F F
0.783380 0.500000 0.327540 F F F
0.783380 0.500000 0.412760 F F F
0.711960 0.500000 0.171310 F F F
0.711960 0.500000 0.256530 F F F
0.711960 0.500000 0.341750 F F F
0.711960 0.500000 0.426960 F F F
0.640530 0.500000 0.213920 F F F
0.640530 0.500000 0.299140 F F F
0.640530 0.500000 0.384350 F F F
0.640530 0.500000 0.469570 F F F
0.711960 0.500000 0.199720 F F F
0.711960 0.500000 0.284930 F F F
0.711960 0.500000 0.370150 F F F
0.711960 0.500000 0.455370 F F F
0.640530 0.500000 0.157110 F F F
0.640530 0.500000 0.242330 F F F
0.640530 0.500000 0.327540 F F F
0.640530 0.500000 0.412760 F F F
0.569100 0.500000 0.171310 F F F
0.569100 0.500000 0.256530 F F F
0.569100 0.500000 0.341750 F F F
0.569100 0.500000 0.426960 F F F
0.497670 0.500000 0.213920 F F F
0.497670 0.500000 0.299140 F F F
0.497670 0.500000 0.384350 F F F
0.497670 0.500000 0.469570 F F F
0.569100 0.500000 0.199720 F F F
0.569100 0.500000 0.284930 F F F
0.569100 0.500000 0.370150 F F F
0.569100 0.500000 0.455370 F F F
0.497670 0.500000 0.157110 F F F
0.497670 0.500000 0.242330 F F F
0.497670 0.500000 0.327540 F F F
0.497670 0.500000 0.412760 F F F
0.426240 0.500000 0.171310 F F F
0.426240 0.500000 0.256530 F F F
0.426240 0.500000 0.341750 F F F
0.426240 0.500000 0.426960 F F F
0.354810 0.500000 0.213920 F F F
0.354810 0.500000 0.299140 F F F
0.354810 0.500000 0.384350 F F F
0.354810 0.500000 0.469570 F F F
0.426240 0.500000 0.199720 F F F
0.426240 0.500000 0.284930 F F F
0.426240 0.500000 0.370150 F F F
0.426240 0.500000 0.455370 F F F
0.354810 0.500000 0.157110 F F F
0.354810 0.500000 0.242330 F F F
0.354810 0.500000 0.327540 F F F
0.354810 0.500000 0.412760 F F F
0.283380 0.500000 0.171310 F F F
0.283380 0.500000 0.256530 F F F
0.283380 0.500000 0.341750 F F F
0.283380 0.500000 0.426960 F F F
0.211960 0.500000 0.213920 F F F
0.211960 0.500000 0.299140 F F F
0.211960 0.500000 0.384350 F F F
0.211960 0.500000 0.469570 F F F
0.283380 0.500000 0.199720 F F F
0.283380 0.500000 0.284930 F F F
0.283380 0.500000 0.370150 F F F
0.283380 0.500000 0.455370 F F F
0.211960 0.500000 0.157110 F F F
0.211960 0.500000 0.242330 F F F
0.211960 0.500000 0.327540 F F F
0.211960 0.500000 0.412760 F F F
0.140530 0.500000 0.171310 F F F
0.140530 0.500000 0.256530 F F F
0.140530 0.500000 0.341750 F F F
0.140530 0.500000 0.426960 F F F
0.069100 0.500000 0.213920 F F F
0.069100 0.500000 0.299140 F F F
0.069100 0.500000 0.384350 F F F
0.069100 0.500000 0.469570 F F F
0.140530 0.500000 0.199720 F F F
0.140530 0.500000 0.284930 F F F
0.140530 0.500000 0.370150 F F F
0.140530 0.500000 0.455370 F F F
0.069100 0.500000 0.157110 F F F
0.069100 0.500000 0.242330 F F F
0.069100 0.500000 0.327540 F F F
0.069100 0.500000 0.412760 F F F
0.520447 0.581164 0.498122 T T T
0.142221 0.524349 0.480946 T T T
0.470372 0.461163 0.507370 T T T
0.321733 0.637403 0.515057 T T T
0.019394 0.587224 0.503855 T T T
0.999947 0.920046 0.470000 T T T
0.853518 0.942558 0.508763 T T T
0.835414 0.542077 0.487176 T T T
0.612141 0.427273 0.494029 T T T
0.571539 0.488176 0.479597 T T T
0.643175 0.779478 0.469999 T T T
0.904653 0.482533 0.562392 T T T
0.159407 0.728239 0.474030 T T T
0.275940 0.311031 0.519622 T T T
0.954012 0.117774 0.550514 T T T
0.044267 0.850667 0.565311 T T T
0.476750 0.729713 0.489748 T T T
0.798078 0.826240 0.547271 T T T
0.879103 0.957739 0.618653 T T T
0.778192 0.587784 0.547481 T T T
0.445126 0.811655 0.501790 T T T
0.359139 0.799221 0.497931 T T T
0.589794 0.321622 0.656028 T T T
0.891078 0.055198 0.660000 T T T
0.018776 0.393580 0.630476 T T T
0.007383 0.684812 0.630305 T T T
0.793854 0.940123 0.632650 T T T
0.027187 0.556046 0.648887 T T T
0.656232 0.508501 0.658951 T T T
0.982536 0.274872 0.600267 T T T
0.392324 0.719036 0.610771 T T T
0.797502 0.786896 0.573513 T T T
0.235789 0.830686 0.639577 T T T
0.109362 0.500000 0.686241 T T T
0.109362 0.500000 0.735441 T T T
0.109362 0.500000 0.784641 T T T
0.109362 0.500000 0.833841 T T T
0.109362 0.500000 0.883041 T T T
0.109362 0.500000 0.932241 T T T
0.109362 0.500000 0.981441 T T T
0.234362 0.500000 0.661641 T T T
0.234362 0.500000 0.710841 T T T
0.234362 0.500000 0.760041 T T T
0.234362 0.500000 0.809241 T T T
0.234362 0.500000 0.858441 T T T
0.234362 0.500000 0.907641 T T T
0.234362 0.500000 0.956841 T T T
0.192702 0.500000 0.686241 T T T
0.192702 0.500000 0.735441 T T T
0.192702 0.500000 0.784641 T T T
0.192702 0.500000 0.833841 T T T
0.192702 0.500000 0.883041 T T T
0.192702 0.500000 0.932241 T T T
0.192702 0.500000 0.981441 T T T
0.317702 0.500000 0.661641 T T T
0.317702 0.500000 0.710841 T T T
0.317702 0.500000 0.760041 T T T
0.317702 0.500000 0.809241 T T T
0.317702 0.500000 0.858441 T T T
0.317702 0.500000 0.907641 T T T
0.317702 0.500000 0.956841 T T T
0.359362 0.500000 0.686241 T T T
0.359362 0.500000 0.735441 T T T
0.076082 0.500000 0.001191 T T T
0.225972 0.500000 0.001191 T T T
0.326212 0.500000 0.001211 T T T
0.475972 0.500000 0.001191 T T T
0.576212 0.500000 0.001211 T T T
0.725972 0.500000 0.001191 T T T
0.826212 0.500000 0.001211 T T T
0.975972 0.500000 0.001191 T T T
0.926100 0.500000 0.134310 F F F
0.783520 0.500000 0.134310 F F F
0.640670 0.500000 0.134310 F F F
0.497810 0.500000 0.134310 F F F
0.354950 0.500000 0.134310 F F F
0.212100 0.500000 0.134310 F F F
0.068960 0.500000 0.134310 F F F
0.440924 0.257899 0.532975 T T T
0.827182 0.482504 0.504696 T T T
0.721142 0.945100 0.513911 T T T
0.371942 0.797403 0.533873 T T T
0.583254 0.080576 0.523239 T T T
0.748051 0.976502 0.477420 T T T
0.193477 0.020202 0.470000 T T T
0.799822 0.909396 0.483411 T T T
0.466149 0.492986 0.524990 T T T
0.271839 0.435694 0.571574 T T T
0.197511 0.835872 0.532430 T T T
0.249643 0.234372 0.520879 T T T
0.145893 0.894981 0.564145 T T T
0.375106 0.228720 0.500908 T T T
0.903913 0.562066 0.529260 T T T
0.528091 0.698522 0.529436 T T T
0.070257 0.931061 0.558826 T T T
0.562628 0.942218 0.560776 T T T
0.175455 0.605738 0.659994 T T T
0.113101 0.488954 0.629381 T T T
0.260634 0.508053 0.659231 T T T
0.151679 0.819895 0.626006 T T T
0.321076 0.860215 0.567875 T T T
0.246926 0.710221 0.595224 T T T
0.978439 0.625674 0.616787 T T T
0.062906 0.036017 0.660000 T T T
0.798312 0.139488 0.576846 T T T
0.774258 0.770912 0.660000 T T T
