search
1.0
17.131700 0.000000 0.000000
0.000000 10.000000 0.000000
0.000000 0.000000 50.000000
C H 
227 73 
Selective dynamics
Direct
0.272011 0.500000 0.811149 T T T
0.272011 0.500000 0.860349 T T T
0.272011 0.500000 0.909549 T T T
0.272011 0.500000 0.958749 T T T
0.272011 0.500000 0.007949 T T T
0.397011 0.500000 0.688149 T T T
0.397011 0.500000 0.737349 T T T
0.397011 0.500000 0.786549 T T T
0.397011 0.500000 0.835749 T T T
0.397011 0.500000 0.884949 T T T
0.397011 0.500000 0.934149 T T T
0.397011 0.500000 0.983349 T T T
0.355351 0.500000 0.712749 T T T
0.355351 0.500000 0.761949 T T T
0.355351 0.500000 0.811149 T T T
0.355351 0.500000 0.860349 T T T
0.355351 0.500000 0.909549 T T T
0.355351 0.500000 0.958749 T T T
0.355351 0.500000 0.007949 T T T
0.480351 0.500000 0.688149 T T T
0.480351 0.500000 0.737349 T T T
0.480351 0.500000 0.786549 T T T
0.480351 0.500000 0.835749 T T T
0.480351 0.500000 0.884949 T T T
0.480351 0.500000 0.934149 T T T
0.480351 0.500000 0.983349 T T T
0.522011 0.500000 0.712749 T T T
0.522011 0.500000 0.761949 T T T
0.522011 0.500000 0.811149 T T T
0.522011 0.500000 0.860349 T T T
0.522011 0.500000 0.909549 T T T
0.522011 0.500000 0.958749 T T T
0.522011 0.500000 0.007949 T T T
0.647011 0.500000 0.688149 T T T
0.647011 0.500000 0.737349 T T T
0.647011 0.500000 0.786549 T T T
0.647011 0.500000 0.835749 T T T
0.647011 0.500000 0.884949 T T T
0.647011 0.500000 0.934149 T T T
0.647011 0.500000 0.983349 T T T
0.605351 0.500000 0.712749 T T T
0.605351 0.500000 0.761949 T T T
0.605351 0.500000 0.811149 T T T
0.605351 0.500000 0.860349 T T T
0.605351 0.500000 0.909549 T T T
0.605351 0.500000 0.958749 T T T
0.605351 0.500000 0.007949 T T T
0.730351 0.500000 0.688149 T T T
0.730351 0.500000 0.737349 T T T
0.730351 0.500000 0.786549 T T T
0.730351 0.500000 0.835749 T T T
0.730351 0.500000 0.884949 T T T
0.730351 0.500000 0.934149 T T T
0.730351 0.500000 0.983349 T T T
0.772011 0.500000 0.712749 T T T
0.772011 0.500000 0.761949 T T T
0.772011 0.500000 0.811149 T T T
0.772011 0.500000 0.860349 T T T
0.772011 0.500000 0.909549 T T T
0.772011 0.500000 0.958749 T T T
0.772011 0.500000 0.007949 T T T
0.897011 0.500000 0.688149 T T T
0.897011 0.500000 0.737349 T T T
0.897011 0.500000 0.786549 T T T
0.897011 0.500000 0.835749 T T T
0.897011 0.500000 0.884949 T T T
0.897011 0.500000 0.934149 T T T
0.897011 0.500000 0.983349 T T T
0.855351 0.500000 0.712749 T T T
0.855351 0.500000 0.761949 T T T
0.855351 0.500000 0.811149 T T T
0.855351 0.500000 0.860349 T T T
0.855351 0.500000 0.909549 T T T
0.855351 0.500000 0.958749 T T T
0.855351 0.500000 0.007949 T T T
0.980351 0.500000 0.688149 T T T
0.980351 0.500000 0.737349 T T T
0.980351 0.500000 0.786549 T T T
0.980351 0.500000 0.835749 T T T
0.980351 0.500000 0.884949 T T T
0.980351 0.500000 0.934149 T T T
0.980351 0.500000 0.983349 T T T
0.997670 0.500000 0.171310 F F F
0.997670 0.500000 0.256530 F F F
0.997670 0.500000 0.341750 F F F
0.997670 0.500000 0.426960 F F F
0.997670 0.500000 0.199720 F F F
0.997670 0.500000 0.284930 F F F
0.997670 0.500000 0.370150 F F F
0.997670 0.500000 0.455370 F F F
0.926240 0.500000 0.213920 F F F
0.926240 0.500000 0.299140 F F F
0.926240 0.500000 0.384350 F F F
0.926240 0.500000 0.469570 F F F
0.926240 0.500000 0.157110 F F F
0.926240 0.500000 0.242330 F F F
0.926240 0.500000 0.327540 F F F
0.926240 0.500000 0.412760 F F F
0.854810 0.500000 0.171310 F F F
0.854810 0.500000 0.256530 F F F
0.854810 0.500000 0.341750 F F F
0.854810 0.500000 0.426960 F F F
0.783380 0.500000 0.213920 F F F
0.783380 0.500000 0.299140 F F F
0.783380 0.500000 0.384350 F F F
0.783380 0.500000 0.469570 F F F
0.854810 0.500000 0.199720 F F F
0.854810 0.500000 0.284930 F F F
0.854810 0.500000 0.370150 F F F
0.854810 0.500000 0.455370 F F F
0.783380 0.500000 0.157110 F F F
0.783380 0.500000 0.242330 F F F
0.783380 0.500000 0.327540 F F F
0.783380 0.500000 0.412760 F F F
0.711960 0.500000 0.171310 F F F
0.711960 0.500000 0.256530 F F F
0.711960 0.500000 0.341750 F F F
0.711960 0.500000 0.426960 F F F
0.640530 0.500000 0.213920 F F F
0.640530 0.500000 0.299140 F F F
0.640530 0.500000 0.384350 F F F
0.640530 0.500000 0.469570 F F F
0.711960 0.500000 0.199720 F F F
0.711960 0.500000 0.284930 F F F
0.711960 0.500000 0.370150 F F F
0.711960 0.500000 0.455370 F F F
0.640530 0.500000 0.157110 F F F
0.640530 0.500000 0.242330 F F F
0.640530 0.500000 0.327540 F F F
0.640530 0.500000 0.412760 F F F
0.569100 0.500000 0.171310 F F F
0.569100 0.500000 0.256530 F F F
0.569100 0.500000 0.341750 F F F
0.569100 0.500000 0.426960 F F F
0.497670 0.500000 0.213920 F F F
0.497670 0.500000 0.299140 F F F
0.497670 0.500000 0.384350 F F F
0.497670 0.500000 0.469570 F F F
0.569100 0.500000 0.199720 F F F
0.569100 0.500000 0.284930 F F F
0.569100 0.500000 0.370150 F F F
0.569100 0.500000 0.455370 F F F
0.497670 0.500000 0.157110 F F F
0.497670 0.500000 0.242330 F F F
0.497670 0.500000 0.327540 F F F
0.497670 0.500000 0.412760 F F F
0.426240 0.500000 0.171310 F F F
0.426240 0.500000 0.256530 F F F
0.426240 0.500000 0.341750 F F F
0.426240 0.500000 0.426960 F F F
0.354810 0.500000 0.213920 F F F
0.354810 0.500000 0.299140 F F F
0.354810 0.500000 0.384350 F F F
0.354810 0.500000 0.469570 F F F
0.426240 0.500000 0.199720 F F F
0.426240 0.500000 0.284930 F F F
0.426240 0.500000 0.370150 F F F
0.426240 0.500000 0.455370 F F F
0.354810 0.500000 0.157110 F F F
0.354810 0.500000 0.242330 F F F
0.354810 0.500000 0.327540 F F F
0.354810 0.500000 0.412760 F F F
0.283380 0.500000 0.171310 F F F
0.283380 0.500000 0.256530 F F F
0.283380 0.500000 0.341750 F F F
0.283380 0.500000 0.426960 F F F
0.211960 0.500000 0.213920 F F F
0.211960 0.500000 0.299140 F F F
0.211960 0.500000 0.384350 F F F
0.211960 0.500000 0.469570 F F F
0.283380 0.500000 0.199720 F F F
0.283380 0.500000 0.284930 F F F
0.283380 0.500000 0.370150 F F F
0.283380 0.500000 0.455370 F F F
0.211960 0.500000 0.157110 F F F
0.211960 0.500000 0.242330 F F F
0.211960 0.500000 0.327540 F F F
0.211960 0.500000 0.412760 F F F
0.140530 0.500000 0.171310 F F F
0.140530 0.500000 0.256530 F F F
0.140530 0.500000 0.341750 F F F
0.140530 0.500000 0.426960 F F F
0.069100 0.500000 0.213920 F F F
0.069100 0.500000 0.299140 F F F
0.069100 0.500000 0.384350 F F F
0.069100 0.500000 0.469570 F F F
0.140530 0.500000 0.199720 F F F
0.140530 0.500000 0.284930 F F F
0.140530 0.500000 0.370150 F F F
0.140530 0.500000 0.455370 F F F
0.069100 0.500000 0.157110 F F F
0.069100 0.500000 0.242330 F F F
0.069100 0.500000 0.327540 F F F
0.069100 0.500000 0.412760 F F F
0.461836 0.434849 0.495822 T T T
0.317032 0.720252 0.496811 T T T
0.853586 0.805925 0.563952 T T T
0.582923 0.226662 0.531696 T T T
0.429519 0.138515 0.496309 T T T
0.378631 0.368505 0.491520 T T T
0.176940 0.836604 0.490180 T T T
0.596173 0.967647 0.527201 T T T
0.691127 0.709474 0.484597 T T T
0.025761 0.714537 0.531076 T T T
0.164682 0.795869 0.515116 T T T
0.364144 0.909492 0.502307 T T T
0.545638 0.083337 0.526756 T T T
0.522949 0.462349 0.513366 T T T
0.395545 0.690202 0.571329 T T T
0.536723 0.854648 0.491430 T T T
0.071638 0.647345 0.546000 T T T
0.526106 0.871815 0.652542 T T T
0.798010 0.251554 0.636165 T T T
0.497427 0.573295 0.617234 T T T
0.710632 0.704830 0.551139 T T T
0.359195 0.929401 0.588883 T T T
0.451382 0.480638 0.662415 T T T
0.241775 0.606743 0.680180 T T T
0.892491 0.885973 0.586042 T T T
0.967039 0.829804 0.644659 T T T
0.399158 0.875095 0.531093 T T T
0.671089 0.968017 0.686307 T T T
0.547869 0.708152 0.655415 T T T
0.888929 0.394432 0.610522 T T T
0.896348 0.736908 0.686301 T T T
0.332313 0.895117 0.686308 T T T
0.611290 0.053363 0.686304 T T T
0.022011 0.500000 0.712749 T T T
0.022011 0.500000 0.761949 T T T
0.022011 0.500000 0.811149 T T T
0.022011 0.500000 0.860349 T T T
0.022011 0.500000 0.909549 T T T
0.022011 0.500000 0.958749 T T T
0.022011 0.500000 0.007949 T T T
0.147011 0.500000 0.688149 T T T
0.147011 0.500000 0.737349 T T T
0.147011 0.500000 0.786549 T T T
0.147011 0.500000 0.835749 T T T
0.147011 0.500000 0.884949 T T T
0.147011 0.500000 0.934149 T T T
0.147011 0.500000 0.983349 T T T
0.105351 0.500000 0.712749 T T T
0.105351 0.500000 0.761949 T T T
0.105351 0.500000 0.811149 T T T
0.105351 0.500000 0.860349 T T T
0.105351 0.500000 0.909549 T T T
0.105351 0.500000 0.958749 T T T
0.105351 0.500000 0.007949 T T T
0.230351 0.500000 0.688149 T T T
0.230351 0.500000 0.737349 T T T
0.230351 0.500000 0.786549 T T T
0.230351 0.500000 0.835749 T T T
0.230351 0.500000 0.884949 T T T
0.230351 0.500000 0.934149 T T T
0.230351 0.500000 0.983349 T T T
0.272011 0.500000 0.712749 T T T
0.272011 0.500000 0.761949 T T T
0.988731 0.500000 0.027699 T T T
0.138621 0.500000 0.027699 T T T
0.238861 0.500000 0.027719 T T T
0.388621 0.500000 0.027699 T T T
0.488861 0.500000 0.027719 T T T
0.638621 0.500000 0.027699 T T T
0.738861 0.500000 0.027719 T T T
0.888621 0.500000 0.027699 T T T
0.926100 0.500000 0.134310 F F F
0.783520 0.500000 0.134310 F F F
0.640670 0.500000 0.134310 F F F
0.497810 0.500000 0.134310 F F F
0.354950 0.500000 0.134310 F F F
0.212100 0.500000 0.134310 F F F
0.068960 0.500000 0.134310 F F F
0.090268 0.068140 0.489934 T T T
0.983351 0.722820 0.584768 T T T
0.432288 0.154456 0.473565 T T T
0.644491 0.254178 0.525120 T T T
0.246286 0.248190 0.470001 T T T
0.899004 0.353368 0.505195 T T T
0.746315 0.649516 0.516766 T T T
0.422983 0.847378 0.506158 T T T
0.606505 0.362122 0.563822 T T T
0.461569 0.028887 0.542584 T T T
0.964337 0.731364 0.523637 T T T
0.675636 0.072942 0.603809 T T T
0.196438 0.542183 0.581007 T T T
0.461403 0.175126 0.567223 T T T
0.623230 0.551287 0.590751 T T T
0.170950 0.558537 0.569767 T T T
0.827766 0.386754 0.604949 T T T
0.906791 0.820604 0.552628 T T T
0.206773 0.981307 0.685316 T T T
0.094115 0.255378 0.585225 T T T
0.499131 0.418431 0.608620 T T T
0.343222 0.464157 0.681928 T T T
0.397786 0.972237 0.572034 T T T
0.873317 0.603617 0.648856 T T T
0.071854 0.679244 0.644145 T T T
0.441800 0.532300 0.624847 T T T
0.973416 0.706529 0.571849 T T T
0.627754 0.777648 0.620289 T T T
