search
1.0
17.131700 0.000000 0.000000
0.000000 10.000000 0.000000
0.000000 0.000000 50.000000
C H 
227 73 
Selective dynamics
Direct
0.417182 0.500000 0.833541 T T T
0.417182 0.500000 0.882741 T T T
0.417182 0.500000 0.931941 T T T
0.417182 0.500000 0.981141 T T T
0.417182 0.500000 0.030341 T T T
0.542182 0.500000 0.710541 T T T
0.542182 0.500000 0.759741 T T T
0.542182 0.500000 0.808941 T T T
0.542182 0.500000 0.858141 T T T
0.542182 0.500000 0.907341 T T T
0.542182 0.500000 0.956541 T T T
0.542182 0.500000 0.005741 T T T
0.500522 0.500000 0.735141 T T T
0.500522 0.500000 0.784341 T T T
0.500522 0.500000 0.833541 T T T
0.500522 0.500000 0.882741 T T T
0.500522 0.500000 0.931941 T T T
0.500522 0.500000 0.981141 T T T
0.500522 0.500000 0.030341 T T T
0.625522 0.500000 0.710541 T T T
0.625522 0.500000 0.759741 T T T
0.625522 0.500000 0.808941 T T T
0.625522 0.500000 0.858141 T T T
0.625522 0.500000 0.907341 T T T
0.625522 0.500000 0.956541 T T T
0.625522 0.500000 0.005741 T T T
0.667182 0.500000 0.735141 T T T
0.667182 0.500000 0.784341 T T T
0.667182 0.500000 0.833541 T T T
0.667182 0.500000 0.882741 T T T
0.667182 0.500000 0.931941 T T T
0.667182 0.500000 0.981141 T T T
0.667182 0.500000 0.030341 T T T
0.792182 0.500000 0.710541 T T T
0.792182 0.500000 0.759741 T T T
0.792182 0.500000 0.808941 T T T
0.792182 0.500000 0.858141 T T T
0.792182 0.500000 0.907341 T T T
0.792182 0.500000 0.956541 T T T
0.792182 0.500000 0.005741 T T T
0.750522 0.500000 0.735141 T T T
0.750522 0.500000 0.784341 T T T
0.750522 0.500000 0.833541 T T T
0.750522 0.500000 0.882741 T T T
0.750522 0.500000 0.931941 T T T
0.750522 0.500000 0.981141 T T T
0.750522 0.500000 0.030341 T T T
0.875522 0.500000 0.710541 T T T
0.875522 0.500000 0.759741 T T T
0.875522 0.500000 0.808941 T T T
0.875522 0.500000 0.858141 T T T
0.875522 0.500000 0.907341 T T T
0.875522 0.500000 0.956541 T T T
0.875522 0.500000 0.005741 T T T
0.917182 0.500000 0.735141 T T T
0.917182 0.500000 0.784341 T T T
0.917182 0.500000 0.833541 T T T
0.917182 0.500000 0.882741 T T T
0.917182 0.500000 0.931941 T T T
0.917182 0.500000 0.981141 T T T
0.917182 0.500000 0.030341 T T T
0.042182 0.500000 0.710541 T T T
0.042182 0.500000 0.759741 T T T
0.042182 0.500000 0.808941 T T T
0.042182 0.500000 0.858141 T T T
0.042182 0.500000 0.907341 T T T
0.042182 0.500000 0.956541 T T T
0.042182 0.500000 0.005741 T T T
0.000522 0.500000 0.735141 T T T
0.000522 0.500000 0.784341 T T T
0.000522 0.500000 0.833541 T T T
0.000522 0.500000 0.882741 T T T
0.000522 0.500000 0.931941 T T T
0.000522 0.500000 0.981141 T T T
0.000522 0.500000 0.030341 T T T
0.125522 0.500000 0.710541 T T T
0.125522 0.500000 0.759741 T T T
0.125522 0.500000 0.808941 T T T
0.125522 0.500000 0.858141 T T T
0.125522 0.500000 0.907341 T T T
0.125522 0.500000 0.956541 T T T
0.125522 0.500000 0.005741 T T T
0.997670 0.500000 0.171310 F F F
0.997670 0.500000 0.256530 F F F
0.997670 0.500000 0.341750 F F F
0.997670 0.500000 0.426960 F F F
0.997670 0.500000 0.199720 F F F
0.997670 0.500000 0.284930 F F F
0.997670 0.500000 0.370150 F F F
0.997670 0.500000 0.455370 F F F
0.926240 0.500000 0.213920 F F F
0.926240 0.500000 0.299140 F F F
0.926240 0.500000 0.384350 F F F
0.926240 0.500000 0.469570 F F F
0.926240 0.500000 0.157110 F F F
0.926240 0.500000 0.242330 F F F
0.926240 0.500000 0.327540 F F F
0.926240 0.500000 0.412760 F F F
0.854810 0.500000 0.171310 F F F
0.854810 0.500000 0.256530 F F F
0.854810 0.500000 0.341750 F F F
0.854810 0.500000 0.426960 F F F
0.783380 0.500000 0.213920 F F F
0.783380 0.500000 0.299140 F F F
0.783380 0.500000 0.384350 F F F
0.783380 0.500000 0.469570 F F F
0.854810 0.500000 0.199720 F F F
0.854810 0.500000 0.284930 F F F
0.854810 0.500000 0.370150 F F F
0.854810 0.500000 0.455370 F F F
0.783380 0.500000 0.157110 F F F
0.783380 0.500000 0.242330 F F F
0.783380 0.500000 0.327540 F F F
0.783380 0.500000 0.412760 F F F
0.711960 0.500000 0.171310 F F F
0.711960 0.500000 0.256530 F F F
0.711960 0.500000 0.341750 F F F
0.711960 0.500000 0.426960 F F F
0.640530 0.500000 0.213920 F F F
0.640530 0.500000 0.299140 F F F
0.640530 0.500000 0.384350 F F F
0.640530 0.500000 0.469570 F F F
0.711960 0.500000 0.199720 F F F
0.711960 0.500000 0.284930 F F F
0.711960 0.500000 0.370150 F F F
0.711960 0.500000 0.455370 F F F
0.640530 0.500000 0.157110 F F F
0.640530 0.500000 0.242330 F F F
0.640530 0.500000 0.327540 F F F
0.640530 0.500000 0.412760 F F F
0.569100 0.500000 0.171310 F F F
0.569100 0.500000 0.256530 F F F
0.569100 0.500000 0.341750 F F F
0.569100 0.500000 0.426960 F F F
0.497670 0.500000 0.213920 F F F
0.497670 0.500000 0.299140 F F F
0.497670 0.500000 0.384350 F F F
0.497670 0.500000 0.469570 F F F
0.569100 0.500000 0.199720 F F F
0.569100 0.500000 0.284930 F F F
0.569100 0.500000 0.370150 F F F
0.569100 0.500000 0.455370 F F F
0.497670 0.500000 0.157110 F F F
0.497670 0.500000 0.242330 F F F
0.497670 0.500000 0.327540 F F F
0.497670 0.500000 0.412760 F F F
0.426240 0.500000 0.171310 F F F
0.426240 0.500000 0.256530 F F F
0.426240 0.500000 0.341750 F F F
0.426240 0.500000 0.426960 F F F
0.354810 0.500000 0.213920 F F F
0.354810 0.500000 0.299140 F F F
0.354810 0.500000 0.384350 F F F
0.354810 0.500000 0.469570 F F F
0.426240 0.500000 0.199720 F F F
0.426240 0.500000 0.284930 F F F
0.426240 0.500000 0.370150 F F F
0.426240 0.500000 0.455370 F F F
0.354810 0.500000 0.157110 F F F
0.354810 0.500000 0.242330 F F F
0.354810 0.500000 0.327540 F F F
0.354810 0.500000 0.412760 F F F
0.283380 0.500000 0.171310 F F F
0.283380 0.500000 0.256530 F F F
0.283380 0.500000 0.341750 F F F
0.283380 0.500000 0.426960 F F F
0.211960 0.500000 0.213920 F F F
0.211960 0.500000 0.299140 F F F
0.211960 0.500000 0.384350 F F F
0.211960 0.500000 0.469570 F F F
0.283380 0.500000 0.199720 F F F
0.283380 0.500000 0.284930 F F F
0.283380 0.500000 0.370150 F F F
0.283380 0.500000 0.455370 F F F
0.211960 0.500000 0.157110 F F F
0.211960 0.500000 0.242330 F F F
0.211960 0.500000 0.327540 F F F
0.211960 0.500000 0.412760 F F F
0.140530 0.500000 0.171310 F F F
0.140530 0.500000 0.256530 F F F
0.140530 0.500000 0.341750 F F F
0.140530 0.500000 0.426960 F F F
0.069100 0.500000 0.213920 F F F
0.069100 0.500000 0.299140 F F F
0.069100 0.500000 0.384350 F F F
0.069100 0.500000 0.469570 F F F
0.140530 0.500000 0.199720 F F F
0.140530 0.500000 0.284930 F F F
0.140530 0.500000 0.370150 F F F
0.140530 0.500000 0.455370 F F F
0.069100 0.500000 0.157110 F F F
0.069100 0.500000 0.242330 F F F
0.069100 0.500000 0.327540 F F F
0.069100 0.500000 0.412760 F F F
0.621494 0.326210 0.500772 T T T
0.149521 0.224315 0.502196 T T T
0.849111 0.673925 0.502161 T T T
0.616393 0.723538 0.553783 T T T
0.455077 0.905845 0.492985 T T T
0.287169 0.407047 0.481472 T T T
0.219156 0.747156 0.480920 T T T
0.465119 0.542274 0.494036 T T T
0.137019 0.119259 0.486015 T T T
0.837630 0.791258 0.512906 T T T
0.831123 0.938240 0.578900 T T T
0.335170 0.189592 0.629314 T T T
0.225527 0.393306 0.659398 T T T
0.672294 0.597994 0.543237 T T T
0.410768 0.918595 0.660879 T T T
0.852947 0.232056 0.535715 T T T
0.885924 0.659707 0.597189 T T T
0.546072 0.161359 0.636690 T T T
0.692406 0.578472 0.573017 T T T
0.802332 0.793689 0.616797 T T T
0.587028 0.695683 0.579054 T T T
0.165443 0.009363 0.564361 T T T
0.197411 0.961154 0.586562 T T T
0.301804 0.716866 0.708896 T T T
0.673821 0.266884 0.685907 T T T
0.087567 0.601620 0.577335 T T T
0.274728 0.858497 0.630298 T T T
0.682257 0.080732 0.709038 T T T
0.803035 0.000070 0.684743 T T T
0.085711 0.078189 0.644883 T T T
0.603988 0.698243 0.640115 T T T
0.930045 0.946252 0.709012 T T T
0.795837 0.944377 0.707979 T T T
0.167182 0.500000 0.735141 T T T
0.167182 0.500000 0.784341 T T T
0.167182 0.500000 0.833541 T T T
0.167182 0.500000 0.882741 T T T
0.167182 0.500000 0.931941 T T T
0.167182 0.500000 0.981141 T T T
0.167182 0.500000 0.030341 T T T
0.292182 0.500000 0.710541 T T T
0.292182 0.500000 0.759741 T T T
0.292182 0.500000 0.808941 T T T
0.292182 0.500000 0.858141 T T T
0.292182 0.500000 0.907341 T T T
0.292182 0.500000 0.956541 T T T
0.292182 0.500000 0.005741 T T T
0.250522 0.500000 0.735141 T T T
0.250522 0.500000 0.784341 T T T
0.250522 0.500000 0.833541 T T T
0.250522 0.500000 0.882741 T T T
0.250522 0.500000 0.931941 T T T
0.250522 0.500000 0.981141 T T T
0.250522 0.500000 0.030341 T T T
0.375522 0.500000 0.710541 T T T
0.375522 0.500000 0.759741 T T T
0.375522 0.500000 0.808941 T T T
0.375522 0.500000 0.858141 T T T
0.375522 0.500000 0.907341 T T T
0.375522 0.500000 0.956541 T T T
0.375522 0.500000 0.005741 T T T
0.417182 0.500000 0.735141 T T T
0.417182 0.500000 0.784341 T T T
0.133902 0.500000 0.050091 T T T
0.283792 0.500000 0.050091 T T T
0.384032 0.500000 0.050111 T T T
0.533792 0.500000 0.050091 T T T
0.634032 0.500000 0.050111 T T T
0.783792 0.500000 0.050091 T T T
0.884032 0.500000 0.050111 T T T
0.033792 0.500000 0.050091 T T T
0.926100 0.500000 0.134310 F F F
0.783520 0.500000 0.134310 F F F
0.640670 0.500000 0.134310 F F F
0.497810 0.500000 0.134310 F F F
0.354950 0.500000 0.134310 F F F
0.212100 0.500000 0.134310 F F F
0.068960 0.500000 0.134310 F F F
0.984097 0.344015 0.547033 T T T
0.475658 0.238122 0.550579 T T T
0.721057 0.690132 0.541798 T T T
0.097584 0.796824 0.494144 T T T
0.583899 0.649903 0.487943 T T T
0.647806 0.839669 0.577185 T T T
0.676069 0.747061 0.499828 T T T
0.146349 0.994820 0.523189 T T T
0.849493 0.897840 0.506231 T T T
0.769187 0.930599 0.584077 T T T
0.755433 0.571760 0.566793 T T T
0.345889 0.237272 0.551107 T T T
0.079342 0.610836 0.626801 T T T
0.142063 0.668573 0.576412 T T T
0.078337 0.214814 0.532377 T T T
0.826202 0.160746 0.578326 T T T
0.479769 0.118075 0.608553 T T T
0.571253 0.165243 0.511149 T T T
0.641403 0.019549 0.653700 T T T
0.083118 0.105823 0.692522 T T T
0.181670 0.225043 0.555827 T T T
0.123150 0.815485 0.709011 T T T
0.452367 0.235997 0.677384 T T T
0.783842 0.040362 0.664090 T T T
0.129573 0.252064 0.692821 T T T
0.989104 0.388246 0.674815 T T T
0.405733 0.630959 0.592974 T T T
0.392034 0.661006 0.580232 T T T
