search
1.0
17.131700 0.000000 0.000000
0.000000 10.000000 0.000000
0.000000 0.000000 50.000000
C H 
227 73 
Selective dynamics
Direct
0.168486 0.500000 0.838029 T T T
0.168486 0.500000 0.887229 T T T
0.168486 0.500000 0.936429 T T T
0.168486 0.500000 0.985629 T T T
0.168486 0.500000 0.034829 T T T
0.293486 0.500000 0.715029 T T T
0.293486 0.500000 0.764229 T T T
0.293486 0.500000 0.813429 T T T
0.293486 0.500000 0.862629 T T T
0.293486 0.500000 0.911829 T T T
0.293486 0.500000 0.961029 T T T
0.293486 0.500000 0.010229 T T T
0.251826 0.500000 0.739629 T T T
0.251826 0.500000 0.788829 T T T
0.251826 0.500000 0.838029 T T T
0.251826 0.500000 0.887229 T T T
0.251826 0.500000 0.936429 T T T
0.251826 0.500000 0.985629 T T T
0.251826 0.500000 0.034829 T T T
0.376826 0.500000 0.715029 T T T
0.376826 0.500000 0.764229 T T T
0.376826 0.500000 0.813429 T T T
0.376826 0.500000 0.862629 T T T
0.376826 0.500000 0.911829 T T T
0.376826 0.500000 0.961029 T T T
0.376826 0.500000 0.010229 T T T
0.418486 0.500000 0.739629 T T T
0.418486 0.500000 0.788829 T T T
0.418486 0.500000 0.838029 T T T
0.418486 0.500000 0.887229 T T T
0.418486 0.500000 0.936429 T T T
0.418486 0.500000 0.985629 T T T
0.418486 0.500000 0.034829 T T T
0.543486 0.500000 0.715029 T T T
0.543486 0.500000 0.764229 T T T
0.543486 0.500000 0.813429 T T T
0.543486 0.500000 0.862629 T T T
0.543486 0.500000 0.911829 T T T
0.543486 0.500000 0.961029 T T T
0.543486 0.500000 0.010229 T T T
0.501826 0.500000 0.739629 T T T
0.501826 0.500000 0.788829 T T T
0.501826 0.500000 0.838029 T T T
0.501826 0.500000 0.887229 T T T
0.501826 0.500000 0.936429 T T T
0.501826 0.500000 0.985629 T T T
0.501826 0.500000 0.034829 T T T
0.626826 0.500000 0.715029 T T T
0.626826 0.500000 0.764229 T T T
0.626826 0.500000 0.813429 T T T
0.626826 0.500000 0.862629 T T T
0.626826 0.500000 0.911829 T T T
0.626826 0.500000 0.961029 T T T
0.626826 0.500000 0.010229 T T T
0.668486 0.500000 0.739629 T T T
0.668486 0.500000 0.788829 T T T
0.668486 0.500000 0.838029 T T T
0.668486 0.500000 0.887229 T T T
0.668486 0.500000 0.936429 T T T
0.668486 0.500000 0.985629 T T T
0.668486 0.500000 0.034829 T T T
0.793486 0.500000 0.715029 T T T
0.793486 0.500000 0.764229 T T T
0.793486 0.500000 0.813429 T T T
0.793486 0.500000 0.862629 T T T
0.793486 0.500000 0.911829 T T T
0.793486 0.500000 0.961029 T T T
0.793486 0.500000 0.010229 T T T
0.751826 0.500000 0.739629 T T T
0.751826 0.500000 0.788829 T T T
0.751826 0.500000 0.838029 T T T
0.751826 0.500000 0.887229 T T T
0.751826 0.500000 0.936429 T T T
0.751826 0.500000 0.985629 T T T
0.751826 0.500000 0.034829 T T T
0.876826 0.500000 0.715029 T T T
0.876826 0.500000 0.764229 T T T
0.876826 0.500000 0.813429 T T T
0.876826 0.500000 0.862629 T T T
0.876826 0.500000 0.911829 T T T
0.876826 0.500000 0.961029 T T T
0.876826 0.500000 0.010229 T T T
0.997670 0.500000 0.171310 F F F
0.997670 0.500000 0.256530 F F F
0.997670 0.500000 0.341750 F F F
0.997670 0.500000 0.426960 F F F
0.997670 0.500000 0.199720 F F F
0.997670 0.500000 0.284930 F F F
0.997670 0.500000 0.370150 F F F
0.997670 0.500000 0.455370 F F F
0.926240 0.500000 0.213920 F F F
0.926240 0.500000 0.299140 F F F
0.926240 0.500000 0.384350 F F F
0.926240 0.500000 0.469570 F F F
0.926240 0.500000 0.157110 F F F
0.926240 0.500000 0.242330 F F F
0.926240 0.500000 0.327540 F F F
0.926240 0.500000 0.412760 F F F
0.854810 0.500000 0.171310 F F F
0.854810 0.500000 0.256530 F F F
0.854810 0.500000 0.341750 F F F
0.854810 0.500000 0.426960 F F F
0.783380 0.500000 0.213920 F F F
0.783380 0.500000 0.299140 F F F
0.783380 0.500000 0.384350 F F F
0.783380 0.500000 0.469570 F F F
0.854810 0.500000 0.199720 F F F
0.854810 0.500000 0.284930 F F F
0.854810 0.500000 0.370150 F F F
0.854810 0.500000 0.455370 F F F
0.783380 0.500000 0.157110 F F F
0.783380 0.500000 0.242330 F F F
0.783380 0.500000 0.327540 F F F
0.783380 0.500000 0.412760 F F F
0.711960 0.500000 0.171310 F F F
0.711960 0.500000 0.256530 F F F
0.711960 0.500000 0.341750 F F F
0.711960 0.500000 0.426960 F F F
0.640530 0.500000 0.213920 F F F
0.640530 0.500000 0.299140 F F F
0.640530 0.500000 0.384350 F F F
0.640530 0.500000 0.469570 F F F
0.711960 0.500000 0.199720 F F F
0.711960 0.500000 0.284930 F F F
0.711960 0.500000 0.370150 F F F
0.711960 0.500000 0.455370 F F F
0.640530 0.500000 0.157110 F F F
0.640530 0.500000 0.242330 F F F
0.640530 0.500000 0.327540 F F F
0.640530 0.500000 0.412760 F F F
0.569100 0.500000 0.171310 F F F
0.569100 0.500000 0.256530 F F F
0.569100 0.500000 0.341750 F F F
0.569100 0.500000 0.426960 F F F
0.497670 0.500000 0.213920 F F F
0.497670 0.500000 0.299140 F F F
0.497670 0.500000 0.384350 F F F
0.497670 0.500000 0.469570 F F F
0.569100 0.500000 0.199720 F F F
0.569100 0.500000 0.284930 F F F
0.569100 0.500000 0.370150 F F F
0.569100 0.500000 0.455370 F F F
0.497670 0.500000 0.157110 F F F
0.497670 0.500000 0.242330 F F F
0.497670 0.500000 0.327540 F F F
0.497670 0.500000 0.412760 F F F
0.426240 0.500000 0.171310 F F F
0.426240 0.500000 0.256530 F F F
0.426240 0.500000 0.341750 F F F
0.426240 0.500000 0.426960 F F F
0.354810 0.500000 0.213920 F F F
0.354810 0.500000 0.299140 F F F
0.354810 0.500000 0.384350 F F F
0.354810 0.500000 0.469570 F F F
0.426240 0.500000 0.199720 F F F
0.426240 0.500000 0.284930 F F F
0.426240 0.500000 0.370150 F F F
0.426240 0.500000 0.455370 F F F
0.354810 0.500000 0.157110 F F F
0.354810 0.500000 0.242330 F F F
0.354810 0.500000 0.327540 F F F
0.354810 0.500000 0.412760 F F F
0.283380 0.500000 0.171310 F F F
0.283380 0.500000 0.256530 F F F
0.283380 0.500000 0.341750 F F F
0.283380 0.500000 0.426960 F F F
0.211960 0.500000 0.213920 F F F
0.211960 0.500000 0.299140 F F F
0.211960 0.500000 0.384350 F F F
0.211960 0.500000 0.469570 F F F
0.283380 0.500000 0.199720 F F F
0.283380 0.500000 0.284930 F F F
0.283380 0.500000 0.370150 F F F
0.283380 0.500000 0.455370 F F F
0.211960 0.500000 0.157110 F F F
0.211960 0.500000 0.242330 F F F
0.211960 0.500000 0.327540 F F F
0.211960 0.500000 0.412760 F F F
0.140530 0.500000 0.171310 F F F
0.140530 0.500000 0.256530 F F F
0.140530 0.500000 0.341750 F F F
0.140530 0.500000 0.426960 F F F
0.069100 0.500000 0.213920 F F F
0.069100 0.500000 0.299140 F F F
0.069100 0.500000 0.384350 F F F
0.069100 0.500000 0.469570 F F F
0.140530 0.500000 0.199720 F F F
0.140530 0.500000 0.284930 F F F
0.140530 0.500000 0.370150 F F F
0.140530 0.500000 0.455370 F F F
0.069100 0.500000 0.157110 F F F
0.069100 0.500000 0.242330 F F F
0.069100 0.500000 0.327540 F F F
0.069100 0.500000 0.412760 F F F
0.077193 0.103415 0.607385 T T T
0.376148 0.317133 0.649679 T T T
0.829856 0.918552 0.657181 T T T
0.854860 0.503198 0.489440 T T T
0.525611 0.691127 0.478931 T T T
0.753010 0.928835 0.654789 T T T
0.480991 0.118230 0.523623 T T T
0.702821 0.509293 0.623861 T T T
0.448397 0.014520 0.625516 T T T
0.578114 0.840722 0.637331 T T T
0.701193 0.967861 0.695977 T T T
0.165777 0.219003 0.674843 T T T
0.984106 0.258683 0.699019 T T T
0.191724 0.741876 0.484390 T T T
0.161367 0.329837 0.656955 T T T
0.423365 0.520853 0.494014 T T T
0.102688 0.437649 0.602898 T T T
0.203433 0.587982 0.490849 T T T
0.401529 0.590715 0.659460 T T T
0.266259 0.045004 0.541314 T T T
0.417366 0.343613 0.628212 T T T
0.871559 0.846271 0.617388 T T T
0.669381 0.633562 0.686152 T T T
0.577738 0.884296 0.683747 T T T
0.764826 0.587918 0.532981 T T T
0.576814 0.487376 0.615108 T T T
0.350789 0.580506 0.614297 T T T
0.938332 0.840817 0.521366 T T T
0.383091 0.661320 0.496504 T T T
0.961491 0.602278 0.573091 T T T
0.992916 0.321170 0.642432 T T T
0.635788 0.968259 0.673462 T T T
0.652388 0.295651 0.473061 T T T
0.918486 0.500000 0.739629 T T T
0.918486 0.500000 0.788829 T T T
0.918486 0.500000 0.838029 T T T
0.918486 0.500000 0.887229 T T T
0.918486 0.500000 0.936429 T T T
0.918486 0.500000 0.985629 T T T
0.918486 0.500000 0.034829 T T T
0.043486 0.500000 0.715029 T T T
0.043486 0.500000 0.764229 T T T
0.043486 0.500000 0.813429 T T T
0.043486 0.500000 0.862629 T T T
0.043486 0.500000 0.911829 T T T
0.043486 0.500000 0.961029 T T T
0.043486 0.500000 0.010229 T T T
0.001826 0.500000 0.739629 T T T
0.001826 0.500000 0.788829 T T T
0.001826 0.500000 0.838029 T T T
0.001826 0.500000 0.887229 T T T
0.001826 0.500000 0.936429 T T T
0.001826 0.500000 0.985629 T T T
0.001826 0.500000 0.034829 T T T
0.126826 0.500000 0.715029 T T T
0.126826 0.500000 0.764229 T T T
0.126826 0.500000 0.813429 T T T
0.126826 0.500000 0.862629 T T T
0.126826 0.500000 0.911829 T T T
0.126826 0.500000 0.961029 T T T
0.126826 0.500000 0.010229 T T T
0.168486 0.500000 0.739629 T T T
0.168486 0.500000 0.788829 T T T
0.885206 0.500000 0.054579 T T T
0.035096 0.500000 0.054579 T T T
0.135335 0.500000 0.054599 T T T
0.285096 0.500000 0.054579 T T T
0.385335 0.500000 0.054599 T T T
0.535096 0.500000 0.054579 T T T
0.635335 0.500000 0.054599 T T T
0.785096 0.500000 0.054579 T T T
0.926100 0.500000 0.134310 F F F
0.783520 0.500000 0.134310 F F F
0.640670 0.500000 0.134310 F F F
0.497810 0.500000 0.134310 F F F
0.354950 0.500000 0.134310 F F F
0.212100 0.500000 0.134310 F F F
0.068960 0.500000 0.134310 F F F
0.390746 0.215099 0.556232 T T T
0.202138 0.475557 0.597417 T T T
0.727280 0.740519 0.708208 T T T
0.789992 0.207148 0.694441 T T T
0.591760 0.366937 0.591826 T T T
0.480547 0.479920 0.673104 T T T
0.309955 0.442191 0.566347 T T T
0.003897 0.661569 0.499083 T T T
0.899774 0.556347 0.572691 T T T
0.593173 0.311106 0.483463 T T T
0.414308 0.911166 0.618118 T T T
0.418656 0.880545 0.506110 T T T
0.206706 0.687820 0.622604 T T T
0.173503 0.290695 0.634312 T T T
0.200590 0.054263 0.691262 T T T
0.791153 0.212477 0.674032 T T T
0.547892 0.223655 0.478291 T T T
0.810717 0.082979 0.694292 T T T
0.478341 0.906136 0.536008 T T T
0.400060 0.630214 0.542953 T T T
0.215742 0.744429 0.638290 T T T
0.347181 0.437240 0.558461 T T T
0.252353 0.380687 0.537950 T T T
0.064131 0.084053 0.585603 T T T
0.665400 0.121721 0.685000 T T T
0.237887 0.790407 0.565362 T T T
0.042598 0.220969 0.672526 T T T
0.619359 0.302225 0.691283 T T T
