search
1.0
17.131700 0.000000 0.000000
0.000000 10.000000 0.000000
0.000000 0.000000 50.000000
C H 
227 73 
Selective dynamics
Direct
0.361185 0.500000 0.807106 T T T
0.361185 0.500000 0.856306 T T T
0.361185 0.500000 0.905506 T T T
0.361185 0.500000 0.954706 T T T
0.361185 0.500000 0.003906 T T T
0.486185 0.500000 0.684106 T T T
0.486185 0.500000 0.733306 T T T
0.486185 0.500000 0.782506 T T T
0.486185 0.500000 0.831706 T T T
0.486185 0.500000 0.880906 T T T
0.486185 0.500000 0.930106 T T T
0.486185 0.500000 0.979306 T T T
0.444525 0.500000 0.708706 T T T
0.444525 0.500000 0.757906 T T T
0.444525 0.500000 0.807106 T T T
0.444525 0.500000 0.856306 T T T
0.444525 0.500000 0.905506 T T T
0.444525 0.500000 0.954706 T T T
0.444525 0.500000 0.003906 T T T
0.569525 0.500000 0.684106 T T T
0.569525 0.500000 0.733306 T T T
0.569525 0.500000 0.782506 T T T
0.569525 0.500000 0.831706 T T T
0.569525 0.500000 0.880906 T T T
0.569525 0.500000 0.930106 T T T
0.569525 0.500000 0.979306 T T T
0.611185 0.500000 0.708706 T T T
0.611185 0.500000 0.757906 T T T
0.611185 0.500000 0.807106 T T T
0.611185 0.500000 0.856306 T T T
0.611185 0.500000 0.905506 T T T
0.611185 0.500000 0.954706 T T T
0.611185 0.500000 0.003906 T T T
0.736185 0.500000 0.684106 T T T
0.736185 0.500000 0.733306 T T T
0.736185 0.500000 0.782506 T T T
0.736185 0.500000 0.831706 T T T
0.736185 0.500000 0.880906 T T T
0.736185 0.500000 0.930106 T T T
0.736185 0.500000 0.979306 T T T
0.694525 0.500000 0.708706 T T T
0.694525 0.500000 0.757906 T T T
0.694525 0.500000 0.807106 T T T
0.694525 0.500000 0.856306 T T T
0.694525 0.500000 0.905506 T T T
0.694525 0.500000 0.954706 T T T
0.694525 0.500000 0.003906 T T T
0.819525 0.500000 0.684106 T T T
0.819525 0.500000 0.733306 T T T
0.819525 0.500000 0.782506 T T T
0.819525 0.500000 0.831706 T T T
0.819525 0.500000 0.880906 T T T
0.819525 0.500000 0.930106 T T T
0.819525 0.500000 0.979306 T T T
0.861185 0.500000 0.708706 T T T
0.861185 0.500000 0.757906 T T T
0.861185 0.500000 0.807106 T T T
0.861185 0.500000 0.856306 T T T
0.861185 0.500000 0.905506 T T T
0.861185 0.500000 0.954706 T T T
0.861185 0.500000 0.003906 T T T
0.986185 0.500000 0.684106 T T T
0.986185 0.500000 0.733306 T T T
0.986185 0.500000 0.782506 T T T
0.986185 0.500000 0.831706 T T T
0.986185 0.500000 0.880906 T T T
0.986185 0.500000 0.930106 T T T
0.986185 0.500000 0.979306 T T T
0.944525 0.500000 0.708706 T T T
0.944525 0.500000 0.757906 T T T
0.944525 0.500000 0.807106 T T T
0.944525 0.500000 0.856306 T T T
0.944525 0.500000 0.905506 T T T
0.944525 0.500000 0.954706 T T T
0.944525 0.500000 0.003906 T T T
0.069525 0.500000 0.684106 T T T
0.069525 0.500000 0.733306 T T T
0.069525 0.500000 0.782506 T T T
0.069525 0.500000 0.831706 T T T
0.069525 0.500000 0.880906 T T T
0.069525 0.500000 0.930106 T T T
0.069525 0.500000 0.979306 T T T
0.997670 0.500000 0.171310 F F F
0.997670 0.500000 0.256530 F F F
0.997670 0.500000 0.341750 F F F
0.997670 0.500000 0.426960 F F F
0.997670 0.500000 0.199720 F F F
0.997670 0.500000 0.284930 F F F
0.997670 0.500000 0.370150 F F F
0.997670 0.500000 0.455370 F F F
0.926240 0.500000 0.213920 F F F
0.926240 0.500000 0.299140 F F F
0.926240 0.500000 0.384350 F F F
0.926240 0.500000 0.469570 F F F
0.926240 0.500000 0.157110 F F F
0.926240 0.500000 0.242330 F F F
0.926240 0.500000 0.327540 F F F
0.926240 0.500000 0.412760 F F F
0.854810 0.500000 0.171310 F F F
0.854810 0.500000 0.256530 F F F
0.854810 0.500000 0.341750 F F F
0.854810 0.500000 0.426960 F F F
0.783380 0.500000 0.213920 F F F
0.783380 0.500000 0.299140 F F F
0.783380 0.500000 0.384350 F F F
0.783380 0.500000 0.469570 F F F
0.854810 0.500000 0.199720 F F F
0.854810 0.500000 0.284930 F F F
0.854810 0.500000 0.370150 F F F
0.854810 0.500000 0.455370 F F F
0.783380 0.500000 0.157110 F F F
0.783380 0.500000 0.242330 F F F
0.783380 0.500000 0.327540 F F F
0.783380 0.500000 0.412760 F F F
0.711960 0.500000 0.171310 F F F
0.711960 0.500000 0.256530 F F F
0.711960 0.500000 0.341750 F F F
0.711960 0.500000 0.426960 F F F
0.640530 0.500000 0.213920 F F F
0.640530 0.500000 0.299140 F F F
0.640530 0.500000 0.384350 F F F
0.640530 0.500000 0.469570 F F F
0.711960 0.500000 0.199720 F F F
0.711960 0.500000 0.284930 F F F
0.711960 0.500000 0.370150 F F F
0.711960 0.500000 0.455370 F F F
0.640530 0.500000 0.157110 F F F
0.640530 0.500000 0.242330 F F F
0.640530 0.500000 0.327540 F F F
0.640530 0.500000 0.412760 F F F
0.569100 0.500000 0.171310 F F F
0.569100 0.500000 0.256530 F F F
0.569100 0.500000 0.341750 F F F
0.569100 0.500000 0.426960 F F F
0.497670 0.500000 0.213920 F F F
0.497670 0.500000 0.299140 F F F
0.497670 0.500000 0.384350 F F F
0.497670 0.500000 0.469570 F F F
0.569100 0.500000 0.199720 F F F
0.569100 0.500000 0.284930 F F F
0.569100 0.500000 0.370150 F F F
0.569100 0.500000 0.455370 F F F
0.497670 0.500000 0.157110 F F F
0.497670 0.500000 0.242330 F F F
0.497670 0.500000 0.327540 F F F
0.497670 0.500000 0.412760 F F F
0.426240 0.500000 0.171310 F F F
0.426240 0.500000 0.256530 F F F
0.426240 0.500000 0.341750 F F F
0.426240 0.500000 0.426960 F F F
0.354810 0.500000 0.213920 F F F
0.354810 0.500000 0.299140 F F F
0.354810 0.500000 0.384350 F F F
0.354810 0.500000 0.469570 F F F
0.426240 0.500000 0.199720 F F F
0.426240 0.500000 0.284930 F F F
0.426240 0.500000 0.370150 F F F
0.426240 0.500000 0.455370 F F F
0.354810 0.500000 0.157110 F F F
0.354810 0.500000 0.242330 F F F
0.354810 0.500000 0.327540 F F F
0.354810 0.500000 0.412760 F F F
0.283380 0.500000 0.171310 F F F
0.283380 0.500000 0.256530 F F F
0.283380 0.500000 0.341750 F F F
0.283380 0.500000 0.426960 F F F
0.211960 0.500000 0.213920 F F F
0.211960 0.500000 0.299140 F F F
0.211960 0.500000 0.384350 F F F
0.211960 0.500000 0.469570 F F F
0.283380 0.500000 0.199720 F F F
0.283380 0.500000 0.284930 F F F
0.283380 0.500000 0.370150 F F F
0.283380 0.500000 0.455370 F F F
0.211960 0.500000 0.157110 F F F
0.211960 0.500000 0.242330 F F F
0.211960 0.500000 0.327540 F F F
0.211960 0.500000 0.412760 F F F
0.140530 0.500000 0.171310 F F F
0.140530 0.500000 0.256530 F F F
0.140530 0.500000 0.341750 F F F
0.140530 0.500000 0.426960 F F F
0.069100 0.500000 0.213920 F F F
0.069100 0.500000 0.299140 F F F
0.069100 0.500000 0.384350 F F F
0.069100 0.500000 0.469570 F F F
0.140530 0.500000 0.199720 F F F
0.140530 0.500000 0.284930 F F F
0.140530 0.500000 0.370150 F F F
0.140530 0.500000 0.455370 F F F
0.069100 0.500000 0.157110 F F F
0.069100 0.500000 0.242330 F F F
0.069100 0.500000 0.327540 F F F
0.069100 0.500000 0.412760 F F F
0.708532 0.005393 0.507326 T T T
0.450083 0.996082 0.511187 T T T
0.617679 0.285386 0.519521 T T T
0.957508 0.494776 0.520723 T T T
0.984353 0.752778 0.541993 T T T
0.426911 0.094734 0.526702 T T T
0.874650 0.866105 0.479715 T T T
0.537970 0.101738 0.472383 T T T
0.394966 0.755768 0.518206 T T T
0.938321 0.921222 0.469414 T T T
0.510498 0.926976 0.503050 T T T
0.538953 0.504478 0.574286 T T T
0.270472 0.397573 0.542245 T T T
0.756070 0.453732 0.514747 T T T
0.415565 0.945722 0.605851 T T T
0.454588 0.059027 0.591381 T T T
0.415559 0.640506 0.527067 T T T
0.512855 0.938239 0.557605 T T T
0.256897 0.745114 0.524442 T T T
0.505873 0.839550 0.629164 T T T
0.519648 0.986126 0.581906 T T T
0.768395 0.822326 0.577306 T T T
0.345794 0.016616 0.607649 T T T
0.403291 0.750943 0.661198 T T T
0.649694 0.427126 0.673797 T T T
0.042872 0.484079 0.630687 T T T
0.044080 0.785142 0.596258 T T T
0.882748 0.014721 0.682447 T T T
0.950929 0.097401 0.682447 T T T
0.818703 0.229502 0.653704 T T T
0.664478 0.560785 0.590739 T T T
0.172168 0.975285 0.580602 T T T
0.097469 0.753573 0.615461 T T T
0.111185 0.500000 0.708706 T T T
0.111185 0.500000 0.757906 T T T
0.111185 0.500000 0.807106 T T T
0.111185 0.500000 0.856306 T T T
0.111185 0.500000 0.905506 T T T
0.111185 0.500000 0.954706 T T T
0.111185 0.500000 0.003906 T T T
0.236185 0.500000 0.684106 T T T
0.236185 0.500000 0.733306 T T T
0.236185 0.500000 0.782506 T T T
0.236185 0.500000 0.831706 T T T
0.236185 0.500000 0.880906 T T T
0.236185 0.500000 0.930106 T T T
0.236185 0.500000 0.979306 T T T
0.194525 0.500000 0.708706 T T T
0.194525 0.500000 0.757906 T T T
0.194525 0.500000 0.807106 T T T
0.194525 0.500000 0.856306 T T T
0.194525 0.500000 0.905506 T T T
0.194525 0.500000 0.954706 T T T
0.194525 0.500000 0.003906 T T T
0.319525 0.500000 0.684106 T T T
0.319525 0.500000 0.733306 T T T
0.319525 0.500000 0.782506 T T T
0.319525 0.500000 0.831706 T T T
0.319525 0.500000 0.880906 T T T
0.319525 0.500000 0.930106 T T T
0.319525 0.500000 0.979306 T T T
0.361185 0.500000 0.708706 T T T
0.361185 0.500000 0.757906 T T T
0.077905 0.500000 0.023656 T T T
0.227795 0.500000 0.023656 T T T
0.328035 0.500000 0.023676 T T T
0.477795 0.500000 0.023656 T T T
0.578035 0.500000 0.023676 T T T
0.727795 0.500000 0.023656 T T T
0.828035 0.500000 0.023676 T T T
0.977795 0.500000 0.023656 T T T
0.926100 0.500000 0.134310 F F F
0.783520 0.500000 0.134310 F F F
0.640670 0.500000 0.134310 F F F
0.497810 0.500000 0.134310 F F F
0.354950 0.500000 0.134310 F F F
0.212100 0.500000 0.134310 F F F
0.068960 0.500000 0.134310 F F F
0.454882 0.255829 0.528917 T T T
0.066887 0.481010 0.509969 T T T
0.900581 0.330057 0.558539 T T T
0.504114 0.226228 0.482013 T T T
0.589004 0.201187 0.557426 T T T
0.996006 0.150457 0.516766 T T T
0.967498 0.355625 0.553354 T T T
0.854692 0.631400 0.464610 T T T
0.119319 0.695552 0.522194 T T T
0.421230 0.360970 0.599433 T T T
0.345931 0.882531 0.651800 T T T
0.731202 0.124852 0.548842 T T T
0.968712 0.850732 0.551890 T T T
0.161601 0.300259 0.584944 T T T
0.183115 0.646146 0.551574 T T T
0.320060 0.661539 0.679660 T T T
0.853381 0.278414 0.611548 T T T
0.910740 0.191318 0.555748 T T T
0.252419 0.000643 0.679074 T T T
0.252946 0.280406 0.622008 T T T
0.190838 0.452471 0.643170 T T T
0.375822 0.012673 0.682446 T T T
0.621053 0.564861 0.606565 T T T
0.354095 0.799020 0.647457 T T T
0.486083 0.050132 0.682444 T T T
0.217999 0.408013 0.630598 T T T
0.877037 0.383401 0.569938 T T T
0.817245 0.458106 0.663824 T T T
