search
1.0
17.131700 0.000000 0.000000
0.000000 10.000000 0.000000
0.000000 0.000000 50.000000
C H 
227 73 
Selective dynamics
Direct
0.403506 0.500000 0.784996 T T T
0.403506 0.500000 0.834196 T T T
0.403506 0.500000 0.883396 T T T
0.403506 0.500000 0.932596 T T T
0.403506 0.500000 0.981796 T T T
0.528507 0.500000 0.661996 T T T
0.528507 0.500000 0.711196 T T T
0.528507 0.500000 0.760396 T T T
0.528507 0.500000 0.809596 T T T
0.528507 0.500000 0.858796 T T T
0.528507 0.500000 0.907996 T T T
0.528507 0.500000 0.957196 T T T
0.486846 0.500000 0.686596 T T T
0.486846 0.500000 0.735796 T T T
0.486846 0.500000 0.784996 T T T
0.486846 0.500000 0.834196 T T T
0.486846 0.500000 0.883396 T T T
0.486846 0.500000 0.932596 T T T
0.486846 0.500000 0.981796 T T T
0.611847 0.500000 0.661996 T T T
0.611847 0.500000 0.711196 T T T
0.611847 0.500000 0.760396 T T T
0.611847 0.500000 0.809596 T T T
0.611847 0.500000 0.858796 T T T
0.611847 0.500000 0.907996 T T T
0.611847 0.500000 0.957196 T T T
0.653506 0.500000 0.686596 T T T
0.653506 0.500000 0.735796 T T T
0.653506 0.500000 0.784996 T T T
0.653506 0.500000 0.834196 T T T
0.653506 0.500000 0.883396 T T T
0.653506 0.500000 0.932596 T T T
0.653506 0.500000 0.981796 T T T
0.778507 0.500000 0.661996 T T T
0.778507 0.500000 0.711196 T T T
0.778507 0.500000 0.760396 T T T
0.778507 0.500000 0.809596 T T T
0.778507 0.500000 0.858796 T T T
0.778507 0.500000 0.907996 T T T
0.778507 0.500000 0.957196 T T T
0.736846 0.500000 0.686596 T T T
0.736846 0.500000 0.735796 T T T
0.736846 0.500000 0.784996 T T T
0.736846 0.500000 0.834196 T T T
0.736846 0.500000 0.883396 T T T
0.736846 0.500000 0.932596 T T T
0.736846 0.500000 0.981796 T T T
0.861847 0.500000 0.661996 T T T
0.861847 0.500000 0.711196 T T T
0.861847 0.500000 0.760396 T T T
0.861847 0.500000 0.809596 T T T
0.861847 0.500000 0.858796 T T T
0.861847 0.500000 0.907996 T T T
0.861847 0.500000 0.957196 T T T
0.903506 0.500000 0.686596 T T T
0.903506 0.500000 0.735796 T T T
0.903506 0.500000 0.784996 T T T
0.903506 0.500000 0.834196 T T T
0.903506 0.500000 0.883396 T T T
0.903506 0.500000 0.932596 T T T
0.903506 0.500000 0.981796 T T T
0.028507 0.500000 0.661996 T T T
0.028507 0.500000 0.711196 T T T
0.028507 0.500000 0.760396 T T T
0.028507 0.500000 0.809596 T T T
0.028507 0.500000 0.858796 T T T
0.028507 0.500000 0.907996 T T T
0.028507 0.500000 0.957196 T T T
0.986846 0.500000 0.686596 T T T
0.986846 0.500000 0.735796 T T T
0.986846 0.500000 0.784996 T T T
0.986846 0.500000 0.834196 T T T
0.986846 0.500000 0.883396 T T T
0.986846 0.500000 0.932596 T T T
0.986846 0.500000 0.981796 T T T
0.111847 0.500000 0.661996 T T T
0.111847 0.500000 0.711196 T T T
0.111847 0.500000 0.760396 T T T
0.111847 0.500000 0.809596 T T T
0.111847 0.500000 0.858796 T T T
0.111847 0.500000 0.907996 T T T
0.111847 0.500000 0.957196 T T T
0.997670 0.500000 0.171310 F F F
0.997670 0.500000 0.256530 F F F
0.997670 0.500000 0.341750 F F F
0.997670 0.500000 0.426960 F F F
0.997670 0.500000 0.199720 F F F
0.997670 0.500000 0.284930 F F F
0.997670 0.500000 0.370150 F F F
0.997670 0.500000 0.455370 F F F
0.926240 0.500000 0.213920 F F F
0.926240 0.500000 0.299140 F F F
0.926240 0.500000 0.384350 F F F
0.926240 0.500000 0.469570 F F F
0.926240 0.500000 0.157110 F F F
0.926240 0.500000 0.242330 F F F
0.926240 0.500000 0.327540 F F F
0.926240 0.500000 0.412760 F F F
0.854810 0.500000 0.171310 F F F
0.854810 0.500000 0.256530 F F F
0.854810 0.500000 0.341750 F F F
0.854810 0.500000 0.426960 F F F
0.783380 0.500000 0.213920 F F F
0.783380 0.500000 0.299140 F F F
0.783380 0.500000 0.384350 F F F
0.783380 0.500000 0.469570 F F F
0.854810 0.500000 0.199720 F F F
0.854810 0.500000 0.284930 F F F
0.854810 0.500000 0.370150 F F F
0.854810 0.500000 0.455370 F F F
0.783380 0.500000 0.157110 F F F
0.783380 0.500000 0.242330 F F F
0.783380 0.500000 0.327540 F F F
0.783380 0.500000 0.412760 F F F
0.711960 0.500000 0.171310 F F F
0.711960 0.500000 0.256530 F F F
0.711960 0.500000 0.341750 F F F
0.711960 0.500000 0.426960 F F F
0.640530 0.500000 0.213920 F F F
0.640530 0.500000 0.299140 F F F
0.640530 0.500000 0.384350 F F F
0.640530 0.500000 0.469570 F F F
0.711960 0.500000 0.199720 F F F
0.711960 0.500000 0.284930 F F F
0.711960 0.500000 0.370150 F F F
0.711960 0.500000 0.455370 F F F
0.640530 0.500000 0.157110 F F F
0.640530 0.500000 0.242330 F F F
0.640530 0.500000 0.327540 F F F
0.640530 0.500000 0.412760 F F F
0.569100 0.500000 0.171310 F F F
0.569100 0.500000 0.256530 F F F
0.569100 0.500000 0.341750 F F F
0.569100 0.500000 0.426960 F F F
0.497670 0.500000 0.213920 F F F
0.497670 0.500000 0.299140 F F F
0.497670 0.500000 0.384350 F F F
0.497670 0.500000 0.469570 F F F
0.569100 0.500000 0.199720 F F F
0.569100 0.500000 0.284930 F F F
0.569100 0.500000 0.370150 F F F
0.569100 0.500000 0.455370 F F F
0.497670 0.500000 0.157110 F F F
0.497670 0.500000 0.242330 F F F
0.497670 0.500000 0.327540 F F F
0.497670 0.500000 0.412760 F F F
0.426240 0.500000 0.171310 F F F
0.426240 0.500000 0.256530 F F F
0.426240 0.500000 0.341750 F F F
0.426240 0.500000 0.426960 F F F
0.354810 0.500000 0.213920 F F F
0.354810 0.500000 0.299140 F F F
0.354810 0.500000 0.384350 F F F
0.354810 0.500000 0.469570 F F F
0.426240 0.500000 0.199720 F F F
0.426240 0.500000 0.284930 F F F
0.426240 0.500000 0.370150 F F F
0.426240 0.500000 0.455370 F F F
0.354810 0.500000 0.157110 F F F
0.354810 0.500000 0.242330 F F F
0.354810 0.500000 0.327540 F F F
0.354810 0.500000 0.412760 F F F
0.283380 0.500000 0.171310 F F F
0.283380 0.500000 0.256530 F F F
0.283380 0.500000 0.341750 F F F
0.283380 0.500000 0.426960 F F F
0.211960 0.500000 0.213920 F F F
0.211960 0.500000 0.299140 F F F
0.211960 0.500000 0.384350 F F F
0.211960 0.500000 0.469570 F F F
0.283380 0.500000 0.199720 F F F
0.283380 0.500000 0.284930 F F F
0.283380 0.500000 0.370150 F F F
0.283380 0.500000 0.455370 F F F
0.211960 0.500000 0.157110 F F F
0.211960 0.500000 0.242330 F F F
0.211960 0.500000 0.327540 F F F
0.211960 0.500000 0.412760 F F F
0.140530 0.500000 0.171310 F F F
0.140530 0.500000 0.256530 F F F
0.140530 0.500000 0.341750 F F F
0.140530 0.500000 0.426960 F F F
0.069100 0.500000 0.213920 F F F
0.069100 0.500000 0.299140 F F F
0.069100 0.500000 0.384350 F F F
0.069100 0.500000 0.469570 F F F
0.140530 0.500000 0.199720 F F F
0.140530 0.500000 0.284930 F F F
0.140530 0.500000 0.370150 F F F
0.140530 0.500000 0.455370 F F F
0.069100 0.500000 0.157110 F F F
0.069100 0.500000 0.242330 F F F
0.069100 0.500000 0.327540 F F F
0.069100 0.500000 0.412760 F F F
0.096790 0.216973 0.478674 T T T
0.112573 0.529941 0.500889 T T T
0.964696 0.589809 0.474815 T T T
0.593266 0.568035 0.496319 T T T
0.344501 0.787737 0.469999 T T T
0.731868 0.064337 0.488043 T T T
0.702544 0.366205 0.500224 T T T
0.736983 0.404233 0.476026 T T T
0.927653 0.549076 0.500424 T T T
0.003437 0.842155 0.476375 T T T
0.373145 0.947033 0.470000 T T T
0.799869 0.130185 0.568385 T T T
0.144359 0.523393 0.542234 T T T
0.090841 0.370813 0.514730 T T T
0.878326 0.060716 0.521372 T T T
0.922849 0.929966 0.550439 T T T
0.601174 0.501813 0.524122 T T T
0.207253 0.576734 0.510252 T T T
0.869268 0.842669 0.549343 T T T
0.296299 0.479187 0.511586 T T T
0.705215 0.532335 0.493860 T T T
0.504046 0.750111 0.559716 T T T
0.460042 0.150941 0.660465 T T T
0.234589 0.513597 0.583182 T T T
0.022298 0.802596 0.636227 T T T
0.296739 0.012889 0.632288 T T T
0.232684 0.150548 0.660464 T T T
0.140049 0.361300 0.656221 T T T
0.848333 0.382067 0.590975 T T T
0.045095 0.409518 0.603092 T T T
0.394051 0.769381 0.636763 T T T
0.988078 0.031317 0.607540 T T T
0.640395 0.955794 0.661850 T T T
0.153506 0.500000 0.686596 T T T
0.153506 0.500000 0.735796 T T T
0.153506 0.500000 0.784996 T T T
0.153506 0.500000 0.834196 T T T
0.153506 0.500000 0.883396 T T T
0.153506 0.500000 0.932596 T T T
0.153506 0.500000 0.981796 T T T
0.278507 0.500000 0.661996 T T T
0.278507 0.500000 0.711196 T T T
0.278507 0.500000 0.760396 T T T
0.278507 0.500000 0.809596 T T T
0.278507 0.500000 0.858796 T T T
0.278507 0.500000 0.907996 T T T
0.278507 0.500000 0.957196 T T T
0.236846 0.500000 0.686596 T T T
0.236846 0.500000 0.735796 T T T
0.236846 0.500000 0.784996 T T T
0.236846 0.500000 0.834196 T T T
0.236846 0.500000 0.883396 T T T
0.236846 0.500000 0.932596 T T T
0.236846 0.500000 0.981796 T T T
0.361847 0.500000 0.661996 T T T
0.361847 0.500000 0.711196 T T T
0.361847 0.500000 0.760396 T T T
0.361847 0.500000 0.809596 T T T
0.361847 0.500000 0.858796 T T T
0.361847 0.500000 0.907996 T T T
0.361847 0.500000 0.957196 T T T
0.403506 0.500000 0.686596 T T T
0.403506 0.500000 0.735796 T T T
0.120226 0.500000 0.001546 T T T
0.270117 0.500000 0.001546 T T T
0.370356 0.500000 0.001566 T T T
0.520117 0.500000 0.001546 T T T
0.620356 0.500000 0.001566 T T T
0.770117 0.500000 0.001546 T T T
0.870356 0.500000 0.001566 T T T
0.020117 0.500000 0.001546 T T T
0.926100 0.500000 0.134310 F F F
0.783520 0.500000 0.134310 F F F
0.640670 0.500000 0.134310 F F F
0.497810 0.500000 0.134310 F F F
0.354950 0.500000 0.134310 F F F
0.212100 0.500000 0.134310 F F F
0.068960 0.500000 0.134310 F F F
0.255385 0.185563 0.509377 T T T
0.133429 0.967156 0.488111 T T T
0.137368 0.218436 0.493552 T T T
0.230151 0.455674 0.516266 T T T
0.443353 0.945992 0.505888 T T T
0.665680 0.004186 0.480170 T T T
0.752194 0.553162 0.544052 T T T
0.678916 0.202576 0.512287 T T T
0.984350 0.284811 0.484312 T T T
0.201420 0.040753 0.564390 T T T
0.283888 0.666699 0.533059 T T T
0.346819 0.695172 0.585531 T T T
0.090708 0.425747 0.564935 T T T
0.936967 0.197419 0.551401 T T T
0.474429 0.380933 0.568838 T T T
0.851685 0.525504 0.540638 T T T
0.061291 0.867920 0.578620 T T T
0.556512 0.853661 0.595783 T T T
0.338048 0.229993 0.660464 T T T
0.057369 0.031865 0.660488 T T T
0.999945 0.060987 0.660503 T T T
0.070317 0.686162 0.598359 T T T
0.486638 0.863141 0.633104 T T T
0.556192 0.373406 0.634959 T T T
0.014419 0.844950 0.578576 T T T
0.837534 0.792886 0.636004 T T T
0.676132 0.922167 0.647214 T T T
0.923991 0.667878 0.634562 T T T
