search
1.0
17.131700 0.000000 0.000000
0.000000 10.000000 0.000000
0.000000 0.000000 50.000000
C H 
227 73 
Selective dynamics
Direct
0.503405 0.500000 0.784559 T T T
0.503405 0.500000 0.833759 T T T
0.503405 0.500000 0.882959 T T T
0.503405 0.500000 0.932159 T T T
0.503405 0.500000 0.981359 T T T
0.628405 0.500000 0.661559 T T T
0.628405 0.500000 0.710759 T T T
0.628405 0.500000 0.759959 T T T
0.628405 0.500000 0.809159 T T T
0.628405 0.500000 0.858359 T T T
0.628405 0.500000 0.907559 T T T
0.628405 0.500000 0.956759 T T T
0.586745 0.500000 0.686159 T T T
0.586745 0.500000 0.735359 T T T
0.586745 0.500000 0.784559 T T T
0.586745 0.500000 0.833759 T T T
0.586745 0.500000 0.882959 T T T
0.586745 0.500000 0.932159 T T T
0.586745 0.500000 0.981359 T T T
0.711745 0.500000 0.661559 T T T
0.711745 0.500000 0.710759 T T T
0.711745 0.500000 0.759959 T T T
0.711745 0.500000 0.809159 T T T
0.711745 0.500000 0.858359 T T T
0.711745 0.500000 0.907559 T T T
0.711745 0.500000 0.956759 T T T
0.753405 0.500000 0.686159 T T T
0.753405 0.500000 0.735359 T T T
0.753405 0.500000 0.784559 T T T
0.753405 0.500000 0.833759 T T T
0.753405 0.500000 0.882959 T T T
0.753405 0.500000 0.932159 T T T
0.753405 0.500000 0.981359 T T T
0.878405 0.500000 0.661559 T T T
0.878405 0.500000 0.710759 T T T
0.878405 0.500000 0.759959 T T T
0.878405 0.500000 0.809159 T T T
0.878405 0.500000 0.858359 T T T
0.878405 0.500000 0.907559 T T T
0.878405 0.500000 0.956759 T T T
0.836745 0.500000 0.686159 T T T
0.836745 0.500000 0.735359 T T T
0.836745 0.500000 0.784559 T T T
0.836745 0.500000 0.833759 T T T
0.836745 0.500000 0.882959 T T T
0.836745 0.500000 0.932159 T T T
0.836745 0.500000 0.981359 T T T
0.961745 0.500000 0.661559 T T T
0.961745 0.500000 0.710759 T T T
0.961745 0.500000 0.759959 T T T
0.961745 0.500000 0.809159 T T T
0.961745 0.500000 0.858359 T T T
0.961745 0.500000 0.907559 T T T
0.961745 0.500000 0.956759 T T T
0.003405 0.500000 0.686159 T T T
0.003405 0.500000 0.735359 T T T
0.003405 0.500000 0.784559 T T T
0.003405 0.500000 0.833759 T T T
0.003405 0.500000 0.882959 T T T
0.003405 0.500000 0.932159 T T T
0.003405 0.500000 0.981359 T T T
0.128405 0.500000 0.661559 T T T
0.128405 0.500000 0.710759 T T T
0.128405 0.500000 0.759959 T T T
0.128405 0.500000 0.809159 T T T
0.128405 0.500000 0.858359 T T T
0.128405 0.500000 0.907559 T T T
0.128405 0.500000 0.956759 T T T
0.086745 0.500000 0.686159 T T T
0.086745 0.500000 0.735359 T T T
0.086745 0.500000 0.784559 T T T
0.086745 0.500000 0.833759 T T T
0.086745 0.500000 0.882959 T T T
0.086745 0.500000 0.932159 T T T
0.086745 0.500000 0.981359 T T T
0.211745 0.500000 0.661559 T T T
0.211745 0.500000 0.710759 T T T
0.211745 0.500000 0.759959 T T T
0.211745 0.500000 0.809159 T T T
0.211745 0.500000 0.858359 T T T
0.211745 0.500000 0.907559 T T T
0.211745 0.500000 0.956759 T T T
0.997670 0.500000 0.171310 F F F
0.997670 0.500000 0.256530 F F F
0.997670 0.500000 0.341750 F F F
0.997670 0.500000 0.426960 F F F
0.997670 0.500000 0.199720 F F F
0.997670 0.500000 0.284930 F F F
0.997670 0.500000 0.370150 F F F
0.997670 0.500000 0.455370 F F F
0.926240 0.500000 0.213920 F F F
0.926240 0.500000 0.299140 F F F
0.926240 0.500000 0.384350 F F F
0.926240 0.500000 0.469570 F F F
0.926240 0.500000 0.157110 F F F
0.926240 0.500000 0.242330 F F F
0.926240 0.500000 0.327540 F F F
0.926240 0.500000 0.412760 F F F
0.854810 0.500000 0.171310 F F F
0.854810 0.500000 0.256530 F F F
0.854810 0.500000 0.341750 F F F
0.854810 0.500000 0.426960 F F F
0.783380 0.500000 0.213920 F F F
0.783380 0.500000 0.299140 F F F
0.783380 0.500000 0.384350 F F F
0.783380 0.500000 0.469570 F F F
0.854810 0.500000 0.199720 F F F
0.854810 0.500000 0.284930 F F F
0.854810 0.500000 0.370150 F F F
0.854810 0.500000 0.455370 F F F
0.783380 0.500000 0.157110 F F F
0.783380 0.500000 0.242330 F F F
0.783380 0.500000 0.327540 F F F
0.783380 0.500000 0.412760 F F F
0.711960 0.500000 0.171310 F F F
0.711960 0.500000 0.256530 F F F
0.711960 0.500000 0.341750 F F F
0.711960 0.500000 0.426960 F F F
0.640530 0.500000 0.213920 F F F
0.640530 0.500000 0.299140 F F F
0.640530 0.500000 0.384350 F F F
0.640530 0.500000 0.469570 F F F
0.711960 0.500000 0.199720 F F F
0.711960 0.500000 0.284930 F F F
0.711960 0.500000 0.370150 F F F
0.711960 0.500000 0.455370 F F F
0.640530 0.500000 0.157110 F F F
0.640530 0.500000 0.242330 F F F
0.640530 0.500000 0.327540 F F F
0.640530 0.500000 0.412760 F F F
0.569100 0.500000 0.171310 F F F
0.569100 0.500000 0.256530 F F F
0.569100 0.500000 0.341750 F F F
0.569100 0.500000 0.426960 F F F
0.497670 0.500000 0.213920 F F F
0.497670 0.500000 0.299140 F F F
0.497670 0.500000 0.384350 F F F
0.497670 0.500000 0.469570 F F F
0.569100 0.500000 0.199720 F F F
0.569100 0.500000 0.284930 F F F
0.569100 0.500000 0.370150 F F F
0.569100 0.500000 0.455370 F F F
0.497670 0.500000 0.157110 F F F
0.497670 0.500000 0.242330 F F F
0.497670 0.500000 0.327540 F F F
0.497670 0.500000 0.412760 F F F
0.426240 0.500000 0.171310 F F F
0.426240 0.500000 0.256530 F F F
0.426240 0.500000 0.341750 F F F
0.426240 0.500000 0.426960 F F F
0.354810 0.500000 0.213920 F F F
0.354810 0.500000 0.299140 F F F
0.354810 0.500000 0.384350 F F F
0.354810 0.500000 0.469570 F F F
0.426240 0.500000 0.199720 F F F
0.426240 0.500000 0.284930 F F F
0.426240 0.500000 0.370150 F F F
0.426240 0.500000 0.455370 F F F
0.354810 0.500000 0.157110 F F F
0.354810 0.500000 0.242330 F F F
0.354810 0.500000 0.327540 F F F
0.354810 0.500000 0.412760 F F F
0.283380 0.500000 0.171310 F F F
0.283380 0.500000 0.256530 F F F
0.283380 0.500000 0.341750 F F F
0.283380 0.500000 0.426960 F F F
0.211960 0.500000 0.213920 F F F
0.211960 0.500000 0.299140 F F F
0.211960 0.500000 0.384350 F F F
0.211960 0.500000 0.469570 F F F
0.283380 0.500000 0.199720 F F F
0.283380 0.500000 0.284930 F F F
0.283380 0.500000 0.370150 F F F
0.283380 0.500000 0.455370 F F F
0.211960 0.500000 0.157110 F F F
0.211960 0.500000 0.242330 F F F
0.211960 0.500000 0.327540 F F F
0.211960 0.500000 0.412760 F F F
0.140530 0.500000 0.171310 F F F
0.140530 0.500000 0.256530 F F F
0.140530 0.500000 0.341750 F F F
0.140530 0.500000 0.426960 F F F
0.069100 0.500000 0.213920 F F F
0.069100 0.500000 0.299140 F F F
0.069100 0.500000 0.384350 F F F
0.069100 0.500000 0.469570 F F F
0.140530 0.500000 0.199720 F F F
0.140530 0.500000 0.284930 F F F
0.140530 0.500000 0.370150 F F F
0.140530 0.500000 0.455370 F F F
0.069100 0.500000 0.157110 F F F
0.069100 0.500000 0.242330 F F F
0.069100 0.500000 0.327540 F F F
0.069100 0.500000 0.412760 F F F
0.516534 0.298645 0.480312 T T T
0.856982 0.504902 0.492886 T T T
0.275685 0.234927 0.479006 T T T
0.623130 0.858801 0.499952 T T T
0.455148 0.967654 0.503142 T T T
0.267911 0.359287 0.473882 T T T
0.916958 0.790931 0.520909 T T T
0.763319 0.672549 0.488043 T T T
0.733129 0.873718 0.470008 T T T
0.175638 0.040240 0.470003 T T T
0.493340 0.972644 0.479991 T T T
0.446776 0.285409 0.483260 T T T
0.315049 0.491617 0.494478 T T T
0.656851 0.720988 0.470755 T T T
0.560453 0.862129 0.577873 T T T
0.501948 0.075372 0.578737 T T T
0.591095 0.189577 0.639895 T T T
0.059591 0.489224 0.601265 T T T
0.302946 0.952060 0.571410 T T T
0.519771 0.049937 0.553458 T T T
0.990811 0.965668 0.511660 T T T
0.092817 0.110503 0.602651 T T T
0.943972 0.597107 0.589801 T T T
0.359370 0.100965 0.661259 T T T
0.425395 0.084246 0.647844 T T T
0.943230 0.333650 0.613944 T T T
0.678714 0.036588 0.536329 T T T
0.524203 0.333825 0.656446 T T T
0.018700 0.112768 0.658270 T T T
0.620812 0.112420 0.601004 T T T
0.255144 0.877431 0.636882 T T T
0.927846 0.768271 0.659993 T T T
0.974937 0.000973 0.655048 T T T
0.253405 0.500000 0.686159 T T T
0.253405 0.500000 0.735359 T T T
0.253405 0.500000 0.784559 T T T
0.253405 0.500000 0.833759 T T T
0.253405 0.500000 0.882959 T T T
0.253405 0.500000 0.932159 T T T
0.253405 0.500000 0.981359 T T T
0.378405 0.500000 0.661559 T T T
0.378405 0.500000 0.710759 T T T
0.378405 0.500000 0.759959 T T T
0.378405 0.500000 0.809159 T T T
0.378405 0.500000 0.858359 T T T
0.378405 0.500000 0.907559 T T T
0.378405 0.500000 0.956759 T T T
0.336745 0.500000 0.686159 T T T
0.336745 0.500000 0.735359 T T T
0.336745 0.500000 0.784559 T T T
0.336745 0.500000 0.833759 T T T
0.336745 0.500000 0.882959 T T T
0.336745 0.500000 0.932159 T T T
0.336745 0.500000 0.981359 T T T
0.461745 0.500000 0.661559 T T T
0.461745 0.500000 0.710759 T T T
0.461745 0.500000 0.759959 T T T
0.461745 0.500000 0.809159 T T T
0.461745 0.500000 0.858359 T T T
0.461745 0.500000 0.907559 T T T
0.461745 0.500000 0.956759 T T T
0.503405 0.500000 0.686159 T T T
0.503405 0.500000 0.735359 T T T
0.220125 0.500000 0.001109 T T T
0.370015 0.500000 0.001109 T T T
0.470255 0.500000 0.001129 T T T
0.620015 0.500000 0.001109 T T T
0.720255 0.500000 0.001129 T T T
0.870015 0.500000 0.001109 T T T
0.970255 0.500000 0.001129 T T T
0.120015 0.500000 0.001109 T T T
0.926100 0.500000 0.134310 F F F
0.783520 0.500000 0.134310 F F F
0.640670 0.500000 0.134310 F F F
0.497810 0.500000 0.134310 F F F
0.354950 0.500000 0.134310 F F F
0.212100 0.500000 0.134310 F F F
0.068960 0.500000 0.134310 F F F
0.945646 0.260210 0.495746 T T T
0.419860 0.179045 0.492219 T T T
0.320822 0.840897 0.469996 T T T
0.168026 0.014286 0.539662 T T T
0.138381 0.127925 0.469978 T T T
0.323465 0.097952 0.537548 T T T
0.569066 0.284100 0.469470 T T T
0.795466 0.897313 0.469746 T T T
0.350555 0.485301 0.513652 T T T
0.385228 0.135820 0.487062 T T T
0.046900 0.955254 0.521044 T T T
0.768260 0.891022 0.508129 T T T
0.056111 0.543239 0.524543 T T T
0.588112 0.866599 0.517917 T T T
0.274843 0.374469 0.548009 T T T
0.567096 0.281021 0.538073 T T T
0.643700 0.388109 0.487649 T T T
0.685852 0.973668 0.553921 T T T
0.259904 0.779079 0.628549 T T T
0.763044 0.985815 0.625161 T T T
0.187751 0.308391 0.563641 T T T
0.456730 0.229424 0.610502 T T T
0.176520 0.384274 0.548298 T T T
0.738845 0.951208 0.635291 T T T
0.391065 0.301099 0.652300 T T T
0.167659 0.213915 0.568067 T T T
0.767792 0.347757 0.474405 T T T
0.703099 0.484624 0.545794 T T T
