search
1.0
17.131700 0.000000 0.000000
0.000000 10.000000 0.000000
0.000000 0.000000 50.000000
C H 
227 73 
Selective dynamics
Direct
0.340236 0.500000 0.792995 T T T
0.340236 0.500000 0.842195 T T T
0.340236 0.500000 0.891395 T T T
0.340236 0.500000 0.940595 T T T
0.340236 0.500000 0.989795 T T T
0.465236 0.500000 0.669995 T T T
0.465236 0.500000 0.719195 T T T
0.465236 0.500000 0.768395 T T T
0.465236 0.500000 0.817595 T T T
0.465236 0.500000 0.866795 T T T
0.465236 0.500000 0.915995 T T T
0.465236 0.500000 0.965195 T T T
0.423576 0.500000 0.694595 T T T
0.423576 0.500000 0.743795 T T T
0.423576 0.500000 0.792995 T T T
0.423576 0.500000 0.842195 T T T
0.423576 0.500000 0.891395 T T T
0.423576 0.500000 0.940595 T T T
0.423576 0.500000 0.989795 T T T
0.548576 0.500000 0.669995 T T T
0.548576 0.500000 0.719195 T T T
0.548576 0.500000 0.768395 T T T
0.548576 0.500000 0.817595 T T T
0.548576 0.500000 0.866795 T T T
0.548576 0.500000 0.915995 T T T
0.548576 0.500000 0.965195 T T T
0.590236 0.500000 0.694595 T T T
0.590236 0.500000 0.743795 T T T
0.590236 0.500000 0.792995 T T T
0.590236 0.500000 0.842195 T T T
0.590236 0.500000 0.891395 T T T
0.590236 0.500000 0.940595 T T T
0.590236 0.500000 0.989795 T T T
0.715236 0.500000 0.669995 T T T
0.715236 0.500000 0.719195 T T T
0.715236 0.500000 0.768395 T T T
0.715236 0.500000 0.817595 T T T
0.715236 0.500000 0.866795 T T T
0.715236 0.500000 0.915995 T T T
0.715236 0.500000 0.965195 T T T
0.673576 0.500000 0.694595 T T T
0.673576 0.500000 0.743795 T T T
0.673576 0.500000 0.792995 T T T
0.673576 0.500000 0.842195 T T T
0.673576 0.500000 0.891395 T T T
0.673576 0.500000 0.940595 T T T
0.673576 0.500000 0.989795 T T T
0.798576 0.500000 0.669995 T T T
0.798576 0.500000 0.719195 T T T
0.798576 0.500000 0.768395 T T T
0.798576 0.500000 0.817595 T T T
0.798576 0.500000 0.866795 T T T
0.798576 0.500000 0.915995 T T T
0.798576 0.500000 0.965195 T T T
0.840236 0.500000 0.694595 T T T
0.840236 0.500000 0.743795 T T T
0.840236 0.500000 0.792995 T T T
0.840236 0.500000 0.842195 T T T
0.840236 0.500000 0.891395 T T T
0.840236 0.500000 0.940595 T T T
0.840236 0.500000 0.989795 T T T
0.965236 0.500000 0.669995 T T T
0.965236 0.500000 0.719195 T T T
0.965236 0.500000 0.768395 T T T
0.965236 0.500000 0.817595 T T T
0.965236 0.500000 0.866795 T T T
0.965236 0.500000 0.915995 T T T
0.965236 0.500000 0.965195 T T T
0.923576 0.500000 0.694595 T T T
0.923576 0.500000 0.743795 T T T
0.923576 0.500000 0.792995 T T T
0.923576 0.500000 0.842195 T T T
0.923576 0.500000 0.891395 T T T
0.923576 0.500000 0.940595 T T T
0.923576 0.500000 0.989795 T T T
0.048576 0.500000 0.669995 T T T
0.048576 0.500000 0.719195 T T T
0.048576 0.500000 0.768395 T T T
0.048576 0.500000 0.817595 T T T
0.048576 0.500000 0.866795 T T T
0.048576 0.500000 0.915995 T T T
0.048576 0.500000 0.965195 T T T
0.997670 0.500000 0.171310 F F F
0.997670 0.500000 0.256530 F F F
0.997670 0.500000 0.341750 F F F
0.997670 0.500000 0.426960 F F F
0.997670 0.500000 0.199720 F F F
0.997670 0.500000 0.284930 F F F
0.997670 0.500000 0.370150 F F F
0.997670 0.500000 0.455370 F F F
0.926240 0.500000 0.213920 F F F
0.926240 0.500000 0.299140 F F F
0.926240 0.500000 0.384350 F F F
0.926240 0.500000 0.469570 F F F
0.926240 0.500000 0.157110 F F F
0.926240 0.500000 0.242330 F F F
0.926240 0.500000 0.327540 F F F
0.926240 0.500000 0.412760 F F F
0.854810 0.500000 0.171310 F F F
0.854810 0.500000 0.256530 F F F
0.854810 0.500000 0.341750 F F F
0.854810 0.500000 0.426960 F F F
0.783380 0.500000 0.213920 F F F
0.783380 0.500000 0.299140 F F F
0.783380 0.500000 0.384350 F F F
0.783380 0.500000 0.469570 F F F
0.854810 0.500000 0.199720 F F F
0.854810 0.500000 0.284930 F F F
0.854810 0.500000 0.370150 F F F
0.854810 0.500000 0.455370 F F F
0.783380 0.500000 0.157110 F F F
0.783380 0.500000 0.242330 F F F
0.783380 0.500000 0.327540 F F F
0.783380 0.500000 0.412760 F F F
0.711960 0.500000 0.171310 F F F
0.711960 0.500000 0.256530 F F F
0.711960 0.500000 0.341750 F F F
0.711960 0.500000 0.426960 F F F
0.640530 0.500000 0.213920 F F F
0.640530 0.500000 0.299140 F F F
0.640530 0.500000 0.384350 F F F
0.640530 0.500000 0.469570 F F F
0.711960 0.500000 0.199720 F F F
0.711960 0.500000 0.284930 F F F
0.711960 0.500000 0.370150 F F F
0.711960 0.500000 0.455370 F F F
0.640530 0.500000 0.157110 F F F
0.640530 0.500000 0.242330 F F F
0.640530 0.500000 0.327540 F F F
0.640530 0.500000 0.412760 F F F
0.569100 0.500000 0.171310 F F F
0.569100 0.500000 0.256530 F F F
0.569100 0.500000 0.341750 F F F
0.569100 0.500000 0.426960 F F F
0.497670 0.500000 0.213920 F F F
0.497670 0.500000 0.299140 F F F
0.497670 0.500000 0.384350 F F F
0.497670 0.500000 0.469570 F F F
0.569100 0.500000 0.199720 F F F
0.569100 0.500000 0.284930 F F F
0.569100 0.500000 0.370150 F F F
0.569100 0.500000 0.455370 F F F
0.497670 0.500000 0.157110 F F F
0.497670 0.500000 0.242330 F F F
0.497670 0.500000 0.327540 F F F
0.497670 0.500000 0.412760 F F F
0.426240 0.500000 0.171310 F F F
0.426240 0.500000 0.256530 F F F
0.426240 0.500000 0.341750 F F F
0.426240 0.500000 0.426960 F F F
0.354810 0.500000 0.213920 F F F
0.354810 0.500000 0.299140 F F F
0.354810 0.500000 0.384350 F F F
0.354810 0.500000 0.469570 F F F
0.426240 0.500000 0.199720 F F F
0.426240 0.500000 0.284930 F F F
0.426240 0.500000 0.370150 F F F
0.426240 0.500000 0.455370 F F F
0.354810 0.500000 0.157110 F F F
0.354810 0.500000 0.242330 F F F
0.354810 0.500000 0.327540 F F F
0.354810 0.500000 0.412760 F F F
0.283380 0.500000 0.171310 F F F
0.283380 0.500000 0.256530 F F F
0.283380 0.500000 0.341750 F F F
0.283380 0.500000 0.426960 F F F
0.211960 0.500000 0.213920 F F F
0.211960 0.500000 0.299140 F F F
0.211960 0.500000 0.384350 F F F
0.211960 0.500000 0.469570 F F F
0.283380 0.500000 0.199720 F F F
0.283380 0.500000 0.284930 F F F
0.283380 0.500000 0.370150 F F F
0.283380 0.500000 0.455370 F F F
0.211960 0.500000 0.157110 F F F
0.211960 0.500000 0.242330 F F F
0.211960 0.500000 0.327540 F F F
0.211960 0.500000 0.412760 F F F
0.140530 0.500000 0.171310 F F F
0.140530 0.500000 0.256530 F F F
0.140530 0.500000 0.341750 F F F
0.140530 0.500000 0.426960 F F F
0.069100 0.500000 0.213920 F F F
0.069100 0.500000 0.299140 F F F
0.069100 0.500000 0.384350 F F F
0.069100 0.500000 0.469570 F F F
0.140530 0.500000 0.199720 F F F
0.140530 0.500000 0.284930 F F F
0.140530 0.500000 0.370150 F F F
0.140530 0.500000 0.455370 F F F
0.069100 0.500000 0.157110 F F F
0.069100 0.500000 0.242330 F F F
0.069100 0.500000 0.327540 F F F
0.069100 0.500000 0.412760 F F F
0.615944 0.113546 0.510368 T T T
0.595552 0.116768 0.484129 T T T
0.468023 0.234927 0.481417 T T T
0.489415 0.397975 0.488237 T T T
0.355746 0.674377 0.492345 T T T
0.934072 0.011098 0.477543 T T T
0.978571 0.038470 0.499222 T T T
0.751200 0.048405 0.473529 T T T
0.757509 0.630403 0.485098 T T T
0.716060 0.845455 0.483056 T T T
0.698739 0.955569 0.471556 T T T
0.163449 0.507263 0.577980 T T T
0.239014 0.596927 0.547069 T T T
0.175255 0.610928 0.528073 T T T
0.024411 0.783780 0.565051 T T T
0.202084 0.897546 0.581673 T T T
0.273757 0.734514 0.541529 T T T
0.976394 0.764340 0.539429 T T T
0.557928 0.848288 0.576239 T T T
0.978887 0.906266 0.546442 T T T
0.972671 0.965668 0.521248 T T T
0.616538 0.978638 0.525480 T T T
0.462737 0.108765 0.618313 T T T
0.163625 0.389719 0.640397 T T T
0.419207 0.398082 0.654351 T T T
0.279615 0.767935 0.634848 T T T
0.159442 0.922688 0.662745 T T T
0.863746 0.333825 0.586997 T T T
0.766416 0.349290 0.662517 T T T
0.691995 0.416227 0.634374 T T T
0.622350 0.502261 0.588507 T T T
0.486191 0.590525 0.606339 T T T
0.511813 0.861423 0.615360 T T T
0.090236 0.500000 0.694595 T T T
0.090236 0.500000 0.743795 T T T
0.090236 0.500000 0.792995 T T T
0.090236 0.500000 0.842195 T T T
0.090236 0.500000 0.891395 T T T
0.090236 0.500000 0.940595 T T T
0.090236 0.500000 0.989795 T T T
0.215236 0.500000 0.669995 T T T
0.215236 0.500000 0.719195 T T T
0.215236 0.500000 0.768395 T T T
0.215236 0.500000 0.817595 T T T
0.215236 0.500000 0.866795 T T T
0.215236 0.500000 0.915995 T T T
0.215236 0.500000 0.965195 T T T
0.173576 0.500000 0.694595 T T T
0.173576 0.500000 0.743795 T T T
0.173576 0.500000 0.792995 T T T
0.173576 0.500000 0.842195 T T T
0.173576 0.500000 0.891395 T T T
0.173576 0.500000 0.940595 T T T
0.173576 0.500000 0.989795 T T T
0.298576 0.500000 0.669995 T T T
0.298576 0.500000 0.719195 T T T
0.298576 0.500000 0.768395 T T T
0.298576 0.500000 0.817595 T T T
0.298576 0.500000 0.866795 T T T
0.298576 0.500000 0.915995 T T T
0.298576 0.500000 0.965195 T T T
0.340236 0.500000 0.694595 T T T
0.340236 0.500000 0.743795 T T T
0.056956 0.500000 0.009545 T T T
0.206846 0.500000 0.009545 T T T
0.307086 0.500000 0.009565 T T T
0.456846 0.500000 0.009545 T T T
0.557086 0.500000 0.009565 T T T
0.706846 0.500000 0.009545 T T T
0.807086 0.500000 0.009565 T T T
0.956846 0.500000 0.009545 T T T
0.926100 0.500000 0.134310 F F F
0.783520 0.500000 0.134310 F F F
0.640670 0.500000 0.134310 F F F
0.497810 0.500000 0.134310 F F F
0.354950 0.500000 0.134310 F F F
0.212100 0.500000 0.134310 F F F
0.068960 0.500000 0.134310 F F F
0.181298 0.260210 0.541949 T T T
0.411428 0.300048 0.472460 T T T
0.027568 0.734800 0.528237 T T T
0.168052 0.748331 0.523608 T T T
0.516299 0.125840 0.518988 T T T
0.709412 0.173389 0.526925 T T T
0.856369 0.354752 0.499364 T T T
0.569643 0.383166 0.461570 T T T
0.772682 0.485301 0.519924 T T T
0.168530 0.378695 0.583408 T T T
0.368811 0.695067 0.587752 T T T
0.167352 0.891022 0.543684 T T T
0.141331 0.917630 0.586169 T T T
0.848659 0.125598 0.573829 T T T
0.968778 0.295202 0.551442 T T T
0.407696 0.369451 0.570006 T T T
0.394596 0.771981 0.581849 T T T
0.686511 0.938087 0.560942 T T T
0.289916 0.232440 0.639662 T T T
0.263225 0.262536 0.629769 T T T
0.045043 0.419003 0.652582 T T T
0.209015 0.536348 0.616772 T T T
0.176609 0.910666 0.624398 T T T
0.323186 0.001721 0.629799 T T T
0.982222 0.255677 0.637121 T T T
0.921761 0.537155 0.617865 T T T
0.613845 0.538461 0.608526 T T T
0.717492 0.552981 0.611172 T T T
