search
1.0
17.131700 0.000000 0.000000
0.000000 10.000000 0.000000
0.000000 0.000000 50.000000
C H 
227 73 
Selective dynamics
Direct
0.351308 0.500000 0.784530 T T T
0.351308 0.500000 0.833730 T T T
0.351308 0.500000 0.882930 T T T
0.351308 0.500000 0.932130 T T T
0.351308 0.500000 0.981330 T T T
0.476309 0.500000 0.661530 T T T
0.476309 0.500000 0.710730 T T T
0.476309 0.500000 0.759930 T T T
0.476309 0.500000 0.809130 T T T
0.476309 0.500000 0.858330 T T T
0.476309 0.500000 0.907530 T T T
0.476309 0.500000 0.956730 T T T
0.434649 0.500000 0.686130 T T T
0.434649 0.500000 0.735330 T T T
0.434649 0.500000 0.784530 T T T
0.434649 0.500000 0.833730 T T T
0.434649 0.500000 0.882930 T T T
0.434649 0.500000 0.932130 T T T
0.434649 0.500000 0.981330 T T T
0.559649 0.500000 0.661530 T T T
0.559649 0.500000 0.710730 T T T
0.559649 0.500000 0.759930 T T T
0.559649 0.500000 0.809130 T T T
0.559649 0.500000 0.858330 T T T
0.559649 0.500000 0.907530 T T T
0.559649 0.500000 0.956730 T T T
0.601308 0.500000 0.686130 T T T
0.601308 0.500000 0.735330 T T T
0.601308 0.500000 0.784530 T T T
0.601308 0.500000 0.833730 T T T
0.601308 0.500000 0.882930 T T T
0.601308 0.500000 0.932130 T T T
0.601308 0.500000 0.981330 T T T
0.726309 0.500000 0.661530 T T T
0.726309 0.500000 0.710730 T T T
0.726309 0.500000 0.759930 T T T
0.726309 0.500000 0.809130 T T T
0.726309 0.500000 0.858330 T T T
0.726309 0.500000 0.907530 T T T
0.726309 0.500000 0.956730 T T T
0.684649 0.500000 0.686130 T T T
0.684649 0.500000 0.735330 T T T
0.684649 0.500000 0.784530 T T T
0.684649 0.500000 0.833730 T T T
0.684649 0.500000 0.882930 T T T
0.684649 0.500000 0.932130 T T T
0.684649 0.500000 0.981330 T T T
0.809649 0.500000 0.661530 T T T
0.809649 0.500000 0.710730 T T T
0.809649 0.500000 0.759930 T T T
0.809649 0.500000 0.809130 T T T
0.809649 0.500000 0.858330 T T T
0.809649 0.500000 0.907530 T T T
0.809649 0.500000 0.956730 T T T
0.851308 0.500000 0.686130 T T T
0.851308 0.500000 0.735330 T T T
0.851308 0.500000 0.784530 T T T
0.851308 0.500000 0.833730 T T T
0.851308 0.500000 0.882930 T T T
0.851308 0.500000 0.932130 T T T
0.851308 0.500000 0.981330 T T T
0.976309 0.500000 0.661530 T T T
0.976309 0.500000 0.710730 T T T
0.976309 0.500000 0.759930 T T T
0.976309 0.500000 0.809130 T T T
0.976309 0.500000 0.858330 T T T
0.976309 0.500000 0.907530 T T T
0.976309 0.500000 0.956730 T T T
0.934649 0.500000 0.686130 T T T
0.934649 0.500000 0.735330 T T T
0.934649 0.500000 0.784530 T T T
0.934649 0.500000 0.833730 T T T
0.934649 0.500000 0.882930 T T T
0.934649 0.500000 0.932130 T T T
0.934649 0.500000 0.981330 T T T
0.059649 0.500000 0.661530 T T T
0.059649 0.500000 0.710730 T T T
0.059649 0.500000 0.759930 T T T
0.059649 0.500000 0.809130 T T T
0.059649 0.500000 0.858330 T T T
0.059649 0.500000 0.907530 T T T
0.059649 0.500000 0.956730 T T T
0.997670 0.500000 0.171310 F F F
0.997670 0.500000 0.256530 F F F
0.997670 0.500000 0.341750 F F F
0.997670 0.500000 0.426960 F F F
0.997670 0.500000 0.199720 F F F
0.997670 0.500000 0.284930 F F F
0.997670 0.500000 0.370150 F F F
0.997670 0.500000 0.455370 F F F
0.926240 0.500000 0.213920 F F F
0.926240 0.500000 0.299140 F F F
0.926240 0.500000 0.384350 F F F
0.926240 0.500000 0.469570 F F F
0.926240 0.500000 0.157110 F F F
0.926240 0.500000 0.242330 F F F
0.926240 0.500000 0.327540 F F F
0.926240 0.500000 0.412760 F F F
0.854810 0.500000 0.171310 F F F
0.854810 0.500000 0.256530 F F F
0.854810 0.500000 0.341750 F F F
0.854810 0.500000 0.426960 F F F
0.783380 0.500000 0.213920 F F F
0.783380 0.500000 0.299140 F F F
0.783380 0.500000 0.384350 F F F
0.783380 0.500000 0.469570 F F F
0.854810 0.500000 0.199720 F F F
0.854810 0.500000 0.284930 F F F
0.854810 0.500000 0.370150 F F F
0.854810 0.500000 0.455370 F F F
0.783380 0.500000 0.157110 F F F
0.783380 0.500000 0.242330 F F F
0.783380 0.500000 0.327540 F F F
0.783380 0.500000 0.412760 F F F
0.711960 0.500000 0.171310 F F F
0.711960 0.500000 0.256530 F F F
0.711960 0.500000 0.341750 F F F
0.711960 0.500000 0.426960 F F F
0.640530 0.500000 0.213920 F F F
0.640530 0.500000 0.299140 F F F
0.640530 0.500000 0.384350 F F F
0.640530 0.500000 0.469570 F F F
0.711960 0.500000 0.199720 F F F
0.711960 0.500000 0.284930 F F F
0.711960 0.500000 0.370150 F F F
0.711960 0.500000 0.455370 F F F
0.640530 0.500000 0.157110 F F F
0.640530 0.500000 0.242330 F F F
0.640530 0.500000 0.327540 F F F
0.640530 0.500000 0.412760 F F F
0.569100 0.500000 0.171310 F F F
0.569100 0.500000 0.256530 F F F
0.569100 0.500000 0.341750 F F F
0.569100 0.500000 0.426960 F F F
0.497670 0.500000 0.213920 F F F
0.497670 0.500000 0.299140 F F F
0.497670 0.500000 0.384350 F F F
0.497670 0.500000 0.469570 F F F
0.569100 0.500000 0.199720 F F F
0.569100 0.500000 0.284930 F F F
0.569100 0.500000 0.370150 F F F
0.569100 0.500000 0.455370 F F F
0.497670 0.500000 0.157110 F F F
0.497670 0.500000 0.242330 F F F
0.497670 0.500000 0.327540 F F F
0.497670 0.500000 0.412760 F F F
0.426240 0.500000 0.171310 F F F
0.426240 0.500000 0.256530 F F F
0.426240 0.500000 0.341750 F F F
0.426240 0.500000 0.426960 F F F
0.354810 0.500000 0.213920 F F F
0.354810 0.500000 0.299140 F F F
0.354810 0.500000 0.384350 F F F
0.354810 0.500000 0.469570 F F F
0.426240 0.500000 0.199720 F F F
0.426240 0.500000 0.284930 F F F
0.426240 0.500000 0.370150 F F F
0.426240 0.500000 0.455370 F F F
0.354810 0.500000 0.157110 F F F
0.354810 0.500000 0.242330 F F F
0.354810 0.500000 0.327540 F F F
0.354810 0.500000 0.412760 F F F
0.283380 0.500000 0.171310 F F F
0.283380 0.500000 0.256530 F F F
0.283380 0.500000 0.341750 F F F
0.283380 0.500000 0.426960 F F F
0.211960 0.500000 0.213920 F F F
0.211960 0.500000 0.299140 F F F
0.211960 0.500000 0.384350 F F F
0.211960 0.500000 0.469570 F F F
0.283380 0.500000 0.199720 F F F
0.283380 0.500000 0.284930 F F F
0.283380 0.500000 0.370150 F F F
0.283380 0.500000 0.455370 F F F
0.211960 0.500000 0.157110 F F F
0.211960 0.500000 0.242330 F F F
0.211960 0.500000 0.327540 F F F
0.211960 0.500000 0.412760 F F F
0.140530 0.500000 0.171310 F F F
0.140530 0.500000 0.256530 F F F
0.140530 0.500000 0.341750 F F F
0.140530 0.500000 0.426960 F F F
0.069100 0.500000 0.213920 F F F
0.069100 0.500000 0.299140 F F F
0.069100 0.500000 0.384350 F F F
0.069100 0.500000 0.469570 F F F
0.140530 0.500000 0.199720 F F F
0.140530 0.500000 0.284930 F F F
0.140530 0.500000 0.370150 F F F
0.140530 0.500000 0.455370 F F F
0.069100 0.500000 0.157110 F F F
0.069100 0.500000 0.242330 F F F
0.069100 0.500000 0.327540 F F F
0.069100 0.500000 0.412760 F F F
0.622988 0.937256 0.499139 T T T
0.689844 0.950992 0.486066 T T T
0.612463 0.198966 0.514225 T T T
0.772570 0.333035 0.471366 T T T
0.271958 0.758676 0.497125 T T T
0.528461 0.116124 0.476662 T T T
0.757538 0.109059 0.496942 T T T
0.854097 0.925133 0.470575 T T T
0.060734 0.606520 0.493531 T T T
0.801318 0.043010 0.476539 T T T
0.682753 0.185917 0.504129 T T T
0.324985 0.482114 0.534017 T T T
0.081863 0.888705 0.541410 T T T
0.578463 0.784216 0.472194 T T T
0.428103 0.256094 0.478079 T T T
0.913163 0.273151 0.536051 T T T
0.402167 0.742709 0.524130 T T T
0.317813 0.128436 0.564161 T T T
0.113538 0.267731 0.534781 T T T
0.387182 0.979068 0.510770 T T T
0.990665 0.974584 0.518985 T T T
0.583327 0.884739 0.543565 T T T
0.211808 0.031533 0.619991 T T T
0.886021 0.470353 0.588055 T T T
0.504476 0.141609 0.647361 T T T
0.162736 0.927597 0.649590 T T T
0.914359 0.960456 0.660335 T T T
0.024491 0.027583 0.633145 T T T
0.611999 0.097176 0.660276 T T T
0.053291 0.983840 0.659137 T T T
0.880005 0.464819 0.614420 T T T
0.855960 0.476020 0.548717 T T T
0.202916 0.856186 0.626646 T T T
0.101308 0.500000 0.686130 T T T
0.101308 0.500000 0.735330 T T T
0.101308 0.500000 0.784530 T T T
0.101308 0.500000 0.833730 T T T
0.101308 0.500000 0.882930 T T T
0.101308 0.500000 0.932130 T T T
0.101308 0.500000 0.981330 T T T
0.226309 0.500000 0.661530 T T T
0.226309 0.500000 0.710730 T T T
0.226309 0.500000 0.759930 T T T
0.226309 0.500000 0.809130 T T T
0.226309 0.500000 0.858330 T T T
0.226309 0.500000 0.907530 T T T
0.226309 0.500000 0.956730 T T T
0.184649 0.500000 0.686130 T T T
0.184649 0.500000 0.735330 T T T
0.184649 0.500000 0.784530 T T T
0.184649 0.500000 0.833730 T T T
0.184649 0.500000 0.882930 T T T
0.184649 0.500000 0.932130 T T T
0.184649 0.500000 0.981330 T T T
0.309649 0.500000 0.661530 T T T
0.309649 0.500000 0.710730 T T T
0.309649 0.500000 0.759930 T T T
0.309649 0.500000 0.809130 T T T
0.309649 0.500000 0.858330 T T T
0.309649 0.500000 0.907530 T T T
0.309649 0.500000 0.956730 T T T
0.351308 0.500000 0.686130 T T T
0.351308 0.500000 0.735330 T T T
0.068028 0.500000 0.001080 T T T
0.217919 0.500000 0.001080 T T T
0.318158 0.500000 0.001100 T T T
0.467919 0.500000 0.001080 T T T
0.568158 0.500000 0.001100 T T T
0.717919 0.500000 0.001080 T T T
0.818158 0.500000 0.001100 T T T
0.967919 0.500000 0.001080 T T T
0.926100 0.500000 0.134310 F F F
0.783520 0.500000 0.134310 F F F
0.640670 0.500000 0.134310 F F F
0.497810 0.500000 0.134310 F F F
0.354950 0.500000 0.134310 F F F
0.212100 0.500000 0.134310 F F F
0.068960 0.500000 0.134310 F F F
0.105968 0.084532 0.548662 T T T
0.590950 0.217521 0.470195 T T T
0.269891 0.508212 0.523389 T T T
0.520675 0.803345 0.480523 T T T
0.757978 0.967026 0.519797 T T T
0.924795 0.128994 0.520485 T T T
0.528154 0.309714 0.488963 T T T
0.715175 0.372616 0.470921 T T T
0.160178 0.179989 0.470001 T T T
0.142158 0.012427 0.576899 T T T
0.589744 0.152989 0.602740 T T T
0.034348 0.721824 0.520194 T T T
0.127076 0.775100 0.526526 T T T
0.108348 0.765895 0.557767 T T T
0.407135 0.852226 0.566414 T T T
0.293338 0.941082 0.588610 T T T
0.479105 0.575138 0.579814 T T T
0.724407 0.977196 0.560773 T T T
0.742284 0.119822 0.633995 T T T
0.810962 0.747336 0.629900 T T T
0.981514 0.977360 0.658179 T T T
0.307684 0.327087 0.579752 T T T
0.859557 0.760739 0.634253 T T T
0.766189 0.216079 0.638714 T T T
0.742704 0.995033 0.640862 T T T
0.032008 0.173623 0.627096 T T T
0.598022 0.216855 0.609300 T T T
0.686283 0.361089 0.633851 T T T
