search
1.0
17.131700 0.000000 0.000000
0.000000 10.000000 0.000000
0.000000 0.000000 50.000000
C H 
227 73 
Selective dynamics
Direct
0.212672 0.500000 0.800689 T T T
0.212672 0.500000 0.849889 T T T
0.212672 0.500000 0.899089 T T T
0.212672 0.500000 0.948289 T T T
0.212672 0.500000 0.997489 T T T
0.337672 0.500000 0.677689 T T T
0.337672 0.500000 0.726889 T T T
0.337672 0.500000 0.776089 T T T
0.337672 0.500000 0.825289 T T T
0.337672 0.500000 0.874489 T T T
0.337672 0.500000 0.923689 T T T
0.337672 0.500000 0.972889 T T T
0.296012 0.500000 0.702289 T T T
0.296012 0.500000 0.751489 T T T
0.296012 0.500000 0.800689 T T T
0.296012 0.500000 0.849889 T T T
0.296012 0.500000 0.899089 T T T
0.296012 0.500000 0.948289 T T T
0.296012 0.500000 0.997489 T T T
0.421012 0.500000 0.677689 T T T
0.421012 0.500000 0.726889 T T T
0.421012 0.500000 0.776089 T T T
0.421012 0.500000 0.825289 T T T
0.421012 0.500000 0.874489 T T T
0.421012 0.500000 0.923689 T T T
0.421012 0.500000 0.972889 T T T
0.462672 0.500000 0.702289 T T T
0.462672 0.500000 0.751489 T T T
0.462672 0.500000 0.800689 T T T
0.462672 0.500000 0.849889 T T T
0.462672 0.500000 0.899089 T T T
0.462672 0.500000 0.948289 T T T
0.462672 0.500000 0.997489 T T T
0.587672 0.500000 0.677689 T T T
0.587672 0.500000 0.726889 T T T
0.587672 0.500000 0.776089 T T T
0.587672 0.500000 0.825289 T T T
0.587672 0.500000 0.874489 T T T
0.587672 0.500000 0.923689 T T T
0.587672 0.500000 0.972889 T T T
0.546012 0.500000 0.702289 T T T
0.546012 0.500000 0.751489 T T T
0.546012 0.500000 0.800689 T T T
0.546012 0.500000 0.849889 T T T
0.546012 0.500000 0.899089 T T T
0.546012 0.500000 0.948289 T T T
0.546012 0.500000 0.997489 T T T
0.671012 0.500000 0.677689 T T T
0.671012 0.500000 0.726889 T T T
0.671012 0.500000 0.776089 T T T
0.671012 0.500000 0.825289 T T T
0.671012 0.500000 0.874489 T T T
0.671012 0.500000 0.923689 T T T
0.671012 0.500000 0.972889 T T T
0.712672 0.500000 0.702289 T T T
0.712672 0.500000 0.751489 T T T
0.712672 0.500000 0.800689 T T T
0.712672 0.500000 0.849889 T T T
0.712672 0.500000 0.899089 T T T
0.712672 0.500000 0.948289 T T T
0.712672 0.500000 0.997489 T T T
0.837672 0.500000 0.677689 T T T
0.837672 0.500000 0.726889 T T T
0.837672 0.500000 0.776089 T T T
0.837672 0.500000 0.825289 T T T
0.837672 0.500000 0.874489 T T T
0.837672 0.500000 0.923689 T T T
0.837672 0.500000 0.972889 T T T
0.796012 0.500000 0.702289 T T T
0.796012 0.500000 0.751489 T T T
0.796012 0.500000 0.800689 T T T
0.796012 0.500000 0.849889 T T T
0.796012 0.500000 0.899089 T T T
0.796012 0.500000 0.948289 T T T
0.796012 0.500000 0.997489 T T T
0.921012 0.500000 0.677689 T T T
0.921012 0.500000 0.726889 T T T
0.921012 0.500000 0.776089 T T T
0.921012 0.500000 0.825289 T T T
0.921012 0.500000 0.874489 T T T
0.921012 0.500000 0.923689 T T T
0.921012 0.500000 0.972889 T T T
0.997670 0.500000 0.171310 F F F
0.997670 0.500000 0.256530 F F F
0.997670 0.500000 0.341750 F F F
0.997670 0.500000 0.426960 F F F
0.997670 0.500000 0.199720 F F F
0.997670 0.500000 0.284930 F F F
0.997670 0.500000 0.370150 F F F
0.997670 0.500000 0.455370 F F F
0.926240 0.500000 0.213920 F F F
0.926240 0.500000 0.299140 F F F
0.926240 0.500000 0.384350 F F F
0.926240 0.500000 0.469570 F F F
0.926240 0.500000 0.157110 F F F
0.926240 0.500000 0.242330 F F F
0.926240 0.500000 0.327540 F F F
0.926240 0.500000 0.412760 F F F
0.854810 0.500000 0.171310 F F F
0.854810 0.500000 0.256530 F F F
0.854810 0.500000 0.341750 F F F
0.854810 0.500000 0.426960 F F F
0.783380 0.500000 0.213920 F F F
0.783380 0.500000 0.299140 F F F
0.783380 0.500000 0.384350 F F F
0.783380 0.500000 0.469570 F F F
0.854810 0.500000 0.199720 F F F
0.854810 0.500000 0.284930 F F F
0.854810 0.500000 0.370150 F F F
0.854810 0.500000 0.455370 F F F
0.783380 0.500000 0.157110 F F F
0.783380 0.500000 0.242330 F F F
0.783380 0.500000 0.327540 F F F
0.783380 0.500000 0.412760 F F F
0.711960 0.500000 0.171310 F F F
0.711960 0.500000 0.256530 F F F
0.711960 0.500000 0.341750 F F F
0.711960 0.500000 0.426960 F F F
0.640530 0.500000 0.213920 F F F
0.640530 0.500000 0.299140 F F F
0.640530 0.500000 0.384350 F F F
0.640530 0.500000 0.469570 F F F
0.711960 0.500000 0.199720 F F F
0.711960 0.500000 0.284930 F F F
0.711960 0.500000 0.370150 F F F
0.711960 0.500000 0.455370 F F F
0.640530 0.500000 0.157110 F F F
0.640530 0.500000 0.242330 F F F
0.640530 0.500000 0.327540 F F F
0.640530 0.500000 0.412760 F F F
0.569100 0.500000 0.171310 F F F
0.569100 0.500000 0.256530 F F F
0.569100 0.500000 0.341750 F F F
0.569100 0.500000 0.426960 F F F
0.497670 0.500000 0.213920 F F F
0.497670 0.500000 0.299140 F F F
0.497670 0.500000 0.384350 F F F
0.497670 0.500000 0.469570 F F F
0.569100 0.500000 0.199720 F F F
0.569100 0.500000 0.284930 F F F
0.569100 0.500000 0.370150 F F F
0.569100 0.500000 0.455370 F F F
0.497670 0.500000 0.157110 F F F
0.497670 0.500000 0.242330 F F F
0.497670 0.500000 0.327540 F F F
0.497670 0.500000 0.412760 F F F
0.426240 0.500000 0.171310 F F F
0.426240 0.500000 0.256530 F F F
0.426240 0.500000 0.341750 F F F
0.426240 0.500000 0.426960 F F F
0.354810 0.500000 0.213920 F F F
0.354810 0.500000 0.299140 F F F
0.354810 0.500000 0.384350 F F F
0.354810 0.500000 0.469570 F F F
0.426240 0.500000 0.199720 F F F
0.426240 0.500000 0.284930 F F F
0.426240 0.500000 0.370150 F F F
0.426240 0.500000 0.455370 F F F
0.354810 0.500000 0.157110 F F F
0.354810 0.500000 0.242330 F F F
0.354810 0.500000 0.327540 F F F
0.354810 0.500000 0.412760 F F F
0.283380 0.500000 0.171310 F F F
0.283380 0.500000 0.256530 F F F
0.283380 0.500000 0.341750 F F F
0.283380 0.500000 0.426960 F F F
0.211960 0.500000 0.213920 F F F
0.211960 0.500000 0.299140 F F F
0.211960 0.500000 0.384350 F F F
0.211960 0.500000 0.469570 F F F
0.283380 0.500000 0.199720 F F F
0.283380 0.500000 0.284930 F F F
0.283380 0.500000 0.370150 F F F
0.283380 0.500000 0.455370 F F F
0.211960 0.500000 0.157110 F F F
0.211960 0.500000 0.242330 F F F
0.211960 0.500000 0.327540 F F F
0.211960 0.500000 0.412760 F F F
0.140530 0.500000 0.171310 F F F
0.140530 0.500000 0.256530 F F F
0.140530 0.500000 0.341750 F F F
0.140530 0.500000 0.426960 F F F
0.069100 0.500000 0.213920 F F F
0.069100 0.500000 0.299140 F F F
0.069100 0.500000 0.384350 F F F
0.069100 0.500000 0.469570 F F F
0.140530 0.500000 0.199720 F F F
0.140530 0.500000 0.284930 F F F
0.140530 0.500000 0.370150 F F F
0.140530 0.500000 0.455370 F F F
0.069100 0.500000 0.157110 F F F
0.069100 0.500000 0.242330 F F F
0.069100 0.500000 0.327540 F F F
0.069100 0.500000 0.412760 F F F
0.115532 0.447447 0.493648 T T T
0.186005 0.574052 0.540704 T T T
0.400703 0.340238 0.491994 T T T
0.964145 0.203665 0.515660 T T T
0.451265 0.969296 0.540195 T T T
0.164228 0.070517 0.549823 T T T
0.165313 0.348366 0.537924 T T T
0.903515 0.401390 0.474579 T T T
0.259566 0.778292 0.470269 T T T
0.765496 0.982753 0.492445 T T T
0.944737 0.866033 0.470179 T T T
0.972231 0.646611 0.566841 T T T
0.133019 0.539538 0.522782 T T T
0.401791 0.732519 0.582900 T T T
0.172361 0.309300 0.606163 T T T
0.305559 0.053976 0.586910 T T T
0.950989 0.889997 0.558522 T T T
0.061927 0.677133 0.554389 T T T
0.452174 0.041547 0.560152 T T T
0.591904 0.002810 0.574207 T T T
0.415931 0.043864 0.582105 T T T
0.814513 0.966575 0.511491 T T T
0.056904 0.357067 0.634269 T T T
0.680870 0.805722 0.616105 T T T
0.536691 0.715707 0.643347 T T T
0.224672 0.104254 0.573850 T T T
0.344653 0.978594 0.676080 T T T
0.963272 0.362200 0.589531 T T T
0.749134 0.181554 0.634758 T T T
0.969038 0.208670 0.649680 T T T
0.879870 0.300877 0.581327 T T T
0.611514 0.336224 0.623740 T T T
0.516803 0.721311 0.610980 T T T
0.962672 0.500000 0.702289 T T T
0.962672 0.500000 0.751489 T T T
0.962672 0.500000 0.800689 T T T
0.962672 0.500000 0.849889 T T T
0.962672 0.500000 0.899089 T T T
0.962672 0.500000 0.948289 T T T
0.962672 0.500000 0.997489 T T T
0.087672 0.500000 0.677689 T T T
0.087672 0.500000 0.726889 T T T
0.087672 0.500000 0.776089 T T T
0.087672 0.500000 0.825289 T T T
0.087672 0.500000 0.874489 T T T
0.087672 0.500000 0.923689 T T T
0.087672 0.500000 0.972889 T T T
0.046012 0.500000 0.702289 T T T
0.046012 0.500000 0.751489 T T T
0.046012 0.500000 0.800689 T T T
0.046012 0.500000 0.849889 T T T
0.046012 0.500000 0.899089 T T T
0.046012 0.500000 0.948289 T T T
0.046012 0.500000 0.997489 T T T
0.171012 0.500000 0.677689 T T T
0.171012 0.500000 0.726889 T T T
0.171012 0.500000 0.776089 T T T
0.171012 0.500000 0.825289 T T T
0.171012 0.500000 0.874489 T T T
0.171012 0.500000 0.923689 T T T
0.171012 0.500000 0.972889 T T T
0.212672 0.500000 0.702289 T T T
0.212672 0.500000 0.751489 T T T
0.929392 0.500000 0.017239 T T T
0.079282 0.500000 0.017239 T T T
0.179522 0.500000 0.017259 T T T
0.329282 0.500000 0.017239 T T T
0.429522 0.500000 0.017259 T T T
0.579282 0.500000 0.017239 T T T
0.679522 0.500000 0.017259 T T T
0.829282 0.500000 0.017239 T T T
0.926100 0.500000 0.134310 F F F
0.783520 0.500000 0.134310 F F F
0.640670 0.500000 0.134310 F F F
0.497810 0.500000 0.134310 F F F
0.354950 0.500000 0.134310 F F F
0.212100 0.500000 0.134310 F F F
0.068960 0.500000 0.134310 F F F
0.206394 0.297776 0.514656 T T T
0.254434 0.082129 0.499720 T T T
0.605396 0.282946 0.510473 T T T
0.943734 0.771523 0.499808 T T T
0.787899 0.604412 0.486034 T T T
0.051165 0.546777 0.551404 T T T
0.535618 0.747615 0.492692 T T T
0.516381 0.824627 0.553137 T T T
0.548302 0.450762 0.561281 T T T
0.582796 0.702073 0.598256 T T T
0.375648 0.887953 0.637223 T T T
0.979994 0.166978 0.567298 T T T
0.094875 0.845089 0.628975 T T T
0.636561 0.320683 0.607455 T T T
0.711001 0.561083 0.632184 T T T
0.287598 0.989758 0.631906 T T T
0.558690 0.540529 0.668247 T T T
0.110093 0.278960 0.638948 T T T
0.074938 0.342869 0.657786 T T T
0.271579 0.255976 0.625857 T T T
0.023022 0.505075 0.673803 T T T
0.738330 0.720049 0.612336 T T T
0.656391 0.368394 0.676093 T T T
0.446202 0.090072 0.676080 T T T
0.718813 0.652866 0.671447 T T T
0.184219 0.156139 0.676080 T T T
0.950941 0.027829 0.630804 T T T
0.134523 0.584615 0.612472 T T T
