search
1.0
17.131700 0.000000 0.000000
0.000000 10.000000 0.000000
0.000000 0.000000 50.000000
C H 
227 73 
Selective dynamics
Direct
0.503357 0.500000 0.784532 T T T
0.503357 0.500000 0.833732 T T T
0.503357 0.500000 0.882932 T T T
0.503357 0.500000 0.932132 T T T
0.503357 0.500000 0.981332 T T T
0.628357 0.500000 0.661532 T T T
0.628357 0.500000 0.710732 T T T
0.628357 0.500000 0.759932 T T T
0.628357 0.500000 0.809132 T T T
0.628357 0.500000 0.858332 T T T
0.628357 0.500000 0.907532 T T T
0.628357 0.500000 0.956732 T T T
0.586697 0.500000 0.686132 T T T
0.586697 0.500000 0.735332 T T T
0.586697 0.500000 0.784532 T T T
0.586697 0.500000 0.833732 T T T
0.586697 0.500000 0.882932 T T T
0.586697 0.500000 0.932132 T T T
0.586697 0.500000 0.981332 T T T
0.711697 0.500000 0.661532 T T T
0.711697 0.500000 0.710732 T T T
0.711697 0.500000 0.759932 T T T
0.711697 0.500000 0.809132 T T T
0.711697 0.500000 0.858332 T T T
0.711697 0.500000 0.907532 T T T
0.711697 0.500000 0.956732 T T T
0.753357 0.500000 0.686132 T T T
0.753357 0.500000 0.735332 T T T
0.753357 0.500000 0.784532 T T T
0.753357 0.500000 0.833732 T T T
0.753357 0.500000 0.882932 T T T
0.753357 0.500000 0.932132 T T T
0.753357 0.500000 0.981332 T T T
0.878357 0.500000 0.661532 T T T
0.878357 0.500000 0.710732 T T T
0.878357 0.500000 0.759932 T T T
0.878357 0.500000 0.809132 T T T
0.878357 0.500000 0.858332 T T T
0.878357 0.500000 0.907532 T T T
0.878357 0.500000 0.956732 T T T
0.836697 0.500000 0.686132 T T T
0.836697 0.500000 0.735332 T T T
0.836697 0.500000 0.784532 T T T
0.836697 0.500000 0.833732 T T T
0.836697 0.500000 0.882932 T T T
0.836697 0.500000 0.932132 T T T
0.836697 0.500000 0.981332 T T T
0.961697 0.500000 0.661532 T T T
0.961697 0.500000 0.710732 T T T
0.961697 0.500000 0.759932 T T T
0.961697 0.500000 0.809132 T T T
0.961697 0.500000 0.858332 T T T
0.961697 0.500000 0.907532 T T T
0.961697 0.500000 0.956732 T T T
0.003357 0.500000 0.686132 T T T
0.003357 0.500000 0.735332 T T T
0.003357 0.500000 0.784532 T T T
0.003357 0.500000 0.833732 T T T
0.003357 0.500000 0.882932 T T T
0.003357 0.500000 0.932132 T T T
0.003357 0.500000 0.981332 T T T
0.128357 0.500000 0.661532 T T T
0.128357 0.500000 0.710732 T T T
0.128357 0.500000 0.759932 T T T
0.128357 0.500000 0.809132 T T T
0.128357 0.500000 0.858332 T T T
0.128357 0.500000 0.907532 T T T
0.128357 0.500000 0.956732 T T T
0.086697 0.500000 0.686132 T T T
0.086697 0.500000 0.735332 T T T
0.086697 0.500000 0.784532 T T T
0.086697 0.500000 0.833732 T T T
0.086697 0.500000 0.882932 T T T
0.086697 0.500000 0.932132 T T T
0.086697 0.500000 0.981332 T T T
0.211697 0.500000 0.661532 T T T
0.211697 0.500000 0.710732 T T T
0.211697 0.500000 0.759932 T T T
0.211697 0.500000 0.809132 T T T
0.211697 0.500000 0.858332 T T T
0.211697 0.500000 0.907532 T T T
0.211697 0.500000 0.956732 T T T
0.997670 0.500000 0.171310 F F F
0.997670 0.500000 0.256530 F F F
0.997670 0.500000 0.341750 F F F
0.997670 0.500000 0.426960 F F F
0.997670 0.500000 0.199720 F F F
0.997670 0.500000 0.284930 F F F
0.997670 0.500000 0.370150 F F F
0.997670 0.500000 0.455370 F F F
0.926240 0.500000 0.213920 F F F
0.926240 0.500000 0.299140 F F F
0.926240 0.500000 0.384350 F F F
0.926240 0.500000 0.469570 F F F
0.926240 0.500000 0.157110 F F F
0.926240 0.500000 0.242330 F F F
0.926240 0.500000 0.327540 F F F
0.926240 0.500000 0.412760 F F F
0.854810 0.500000 0.171310 F F F
0.854810 0.500000 0.256530 F F F
0.854810 0.500000 0.341750 F F F
0.854810 0.500000 0.426960 F F F
0.783380 0.500000 0.213920 F F F
0.783380 0.500000 0.299140 F F F
0.783380 0.500000 0.384350 F F F
0.783380 0.500000 0.469570 F F F
0.854810 0.500000 0.199720 F F F
0.854810 0.500000 0.284930 F F F
0.854810 0.500000 0.370150 F F F
0.854810 0.500000 0.455370 F F F
0.783380 0.500000 0.157110 F F F
0.783380 0.500000 0.242330 F F F
0.783380 0.500000 0.327540 F F F
0.783380 0.500000 0.412760 F F F
0.711960 0.500000 0.171310 F F F
0.711960 0.500000 0.256530 F F F
0.711960 0.500000 0.341750 F F F
0.711960 0.500000 0.426960 F F F
0.640530 0.500000 0.213920 F F F
0.640530 0.500000 0.299140 F F F
0.640530 0.500000 0.384350 F F F
0.640530 0.500000 0.469570 F F F
0.711960 0.500000 0.199720 F F F
0.711960 0.500000 0.284930 F F F
0.711960 0.500000 0.370150 F F F
0.711960 0.500000 0.455370 F F F
0.640530 0.500000 0.157110 F F F
0.640530 0.500000 0.242330 F F F
0.640530 0.500000 0.327540 F F F
0.640530 0.500000 0.412760 F F F
0.569100 0.500000 0.171310 F F F
0.569100 0.500000 0.256530 F F F
0.569100 0.500000 0.341750 F F F
0.569100 0.500000 0.426960 F F F
0.497670 0.500000 0.213920 F F F
0.497670 0.500000 0.299140 F F F
0.497670 0.500000 0.384350 F F F
0.497670 0.500000 0.469570 F F F
0.569100 0.500000 0.199720 F F F
0.569100 0.500000 0.284930 F F F
0.569100 0.500000 0.370150 F F F
0.569100 0.500000 0.455370 F F F
0.497670 0.500000 0.157110 F F F
0.497670 0.500000 0.242330 F F F
0.497670 0.500000 0.327540 F F F
0.497670 0.500000 0.412760 F F F
0.426240 0.500000 0.171310 F F F
0.426240 0.500000 0.256530 F F F
0.426240 0.500000 0.341750 F F F
0.426240 0.500000 0.426960 F F F
0.354810 0.500000 0.213920 F F F
0.354810 0.500000 0.299140 F F F
0.354810 0.500000 0.384350 F F F
0.354810 0.500000 0.469570 F F F
0.426240 0.500000 0.199720 F F F
0.426240 0.500000 0.284930 F F F
0.426240 0.500000 0.370150 F F F
0.426240 0.500000 0.455370 F F F
0.354810 0.500000 0.157110 F F F
0.354810 0.500000 0.242330 F F F
0.354810 0.500000 0.327540 F F F
0.354810 0.500000 0.412760 F F F
0.283380 0.500000 0.171310 F F F
0.283380 0.500000 0.256530 F F F
0.283380 0.500000 0.341750 F F F
0.283380 0.500000 0.426960 F F F
0.211960 0.500000 0.213920 F F F
0.211960 0.500000 0.299140 F F F
0.211960 0.500000 0.384350 F F F
0.211960 0.500000 0.469570 F F F
0.283380 0.500000 0.199720 F F F
0.283380 0.500000 0.284930 F F F
0.283380 0.500000 0.370150 F F F
0.283380 0.500000 0.455370 F F F
0.211960 0.500000 0.157110 F F F
0.211960 0.500000 0.242330 F F F
0.211960 0.500000 0.327540 F F F
0.211960 0.500000 0.412760 F F F
0.140530 0.500000 0.171310 F F F
0.140530 0.500000 0.256530 F F F
0.140530 0.500000 0.341750 F F F
0.140530 0.500000 0.426960 F F F
0.069100 0.500000 0.213920 F F F
0.069100 0.500000 0.299140 F F F
0.069100 0.500000 0.384350 F F F
0.069100 0.500000 0.469570 F F F
0.140530 0.500000 0.199720 F F F
0.140530 0.500000 0.284930 F F F
0.140530 0.500000 0.370150 F F F
0.140530 0.500000 0.455370 F F F
0.069100 0.500000 0.157110 F F F
0.069100 0.500000 0.242330 F F F
0.069100 0.500000 0.327540 F F F
0.069100 0.500000 0.412760 F F F
0.885383 0.939881 0.497244 T T T
0.502849 0.343322 0.499537 T T T
0.147197 0.563319 0.503044 T T T
0.354192 0.658376 0.516213 T T T
0.619677 0.934742 0.547418 T T T
0.915689 0.225548 0.490730 T T T
0.718970 0.571961 0.524461 T T T
0.169398 0.693027 0.470009 T T T
0.600527 0.888639 0.496325 T T T
0.292009 0.424623 0.481415 T T T
0.132519 0.119855 0.478924 T T T
0.081727 0.344658 0.594730 T T T
0.959316 0.163666 0.568477 T T T
0.181027 0.043542 0.501089 T T T
0.222907 0.632199 0.599377 T T T
0.303942 0.639173 0.570202 T T T
0.135253 0.318235 0.569802 T T T
0.046268 0.329281 0.563648 T T T
0.540105 0.761581 0.500903 T T T
0.202048 0.997732 0.557367 T T T
0.979868 0.950972 0.537965 T T T
0.452585 0.856258 0.581832 T T T
0.125004 0.102661 0.623931 T T T
0.246080 0.213895 0.619613 T T T
0.361381 0.152486 0.648286 T T T
0.066839 0.012023 0.618535 T T T
0.954068 0.891716 0.660000 T T T
0.570186 0.029596 0.660454 T T T
0.525616 0.769427 0.593141 T T T
0.594427 0.531278 0.622396 T T T
0.227551 0.854261 0.631666 T T T
0.705435 0.683063 0.655341 T T T
0.540902 0.971790 0.638937 T T T
0.253357 0.500000 0.686132 T T T
0.253357 0.500000 0.735332 T T T
0.253357 0.500000 0.784532 T T T
0.253357 0.500000 0.833732 T T T
0.253357 0.500000 0.882932 T T T
0.253357 0.500000 0.932132 T T T
0.253357 0.500000 0.981332 T T T
0.378357 0.500000 0.661532 T T T
0.378357 0.500000 0.710732 T T T
0.378357 0.500000 0.759932 T T T
0.378357 0.500000 0.809132 T T T
0.378357 0.500000 0.858332 T T T
0.378357 0.500000 0.907532 T T T
0.378357 0.500000 0.956732 T T T
0.336697 0.500000 0.686132 T T T
0.336697 0.500000 0.735332 T T T
0.336697 0.500000 0.784532 T T T
0.336697 0.500000 0.833732 T T T
0.336697 0.500000 0.882932 T T T
0.336697 0.500000 0.932132 T T T
0.336697 0.500000 0.981332 T T T
0.461697 0.500000 0.661532 T T T
0.461697 0.500000 0.710732 T T T
0.461697 0.500000 0.759932 T T T
0.461697 0.500000 0.809132 T T T
0.461697 0.500000 0.858332 T T T
0.461697 0.500000 0.907532 T T T
0.461697 0.500000 0.956732 T T T
0.503357 0.500000 0.686132 T T T
0.503357 0.500000 0.735332 T T T
0.220077 0.500000 0.001082 T T T
0.369967 0.500000 0.001082 T T T
0.470207 0.500000 0.001102 T T T
0.619967 0.500000 0.001082 T T T
0.720207 0.500000 0.001102 T T T
0.869967 0.500000 0.001082 T T T
0.970207 0.500000 0.001102 T T T
0.119967 0.500000 0.001082 T T T
0.926100 0.500000 0.134310 F F F
0.783520 0.500000 0.134310 F F F
0.640670 0.500000 0.134310 F F F
0.497810 0.500000 0.134310 F F F
0.354950 0.500000 0.134310 F F F
0.212100 0.500000 0.134310 F F F
0.068960 0.500000 0.134310 F F F
0.400613 0.168378 0.492070 T T T
0.471494 0.002706 0.491038 T T T
0.955438 0.927190 0.556764 T T T
0.252816 0.032128 0.529277 T T T
0.584642 0.688529 0.511949 T T T
0.187988 0.705817 0.527604 T T T
0.712861 0.999277 0.473656 T T T
0.785513 0.392364 0.474795 T T T
0.747012 0.351798 0.481009 T T T
0.828099 0.056961 0.535660 T T T
0.156527 0.083467 0.605550 T T T
0.233664 0.717002 0.525622 T T T
0.193010 0.572584 0.560089 T T T
0.495143 0.554798 0.558209 T T T
0.660479 0.927465 0.532369 T T T
0.445473 0.823581 0.517541 T T T
0.454233 0.412114 0.610484 T T T
0.348683 0.257775 0.557109 T T T
0.961353 0.280408 0.623373 T T T
0.296969 0.488388 0.605788 T T T
0.345943 0.725243 0.531940 T T T
0.770968 0.943511 0.592948 T T T
0.616058 0.855433 0.660000 T T T
0.108503 0.078823 0.660002 T T T
0.868366 0.336587 0.659627 T T T
0.741609 0.650382 0.583382 T T T
0.041970 0.647589 0.564036 T T T
0.979556 0.740355 0.562031 T T T
