search
1.0
17.131700 0.000000 0.000000
0.000000 10.000000 0.000000
0.000000 0.000000 50.000000
C H 
227 73 
Selective dynamics
Direct
0.217939 0.500000 0.810835 T T T
0.217939 0.500000 0.860035 T T T
0.217939 0.500000 0.909235 T T T
0.217939 0.500000 0.958435 T T T
0.217939 0.500000 0.007635 T T T
0.342939 0.500000 0.687835 T T T
0.342939 0.500000 0.737035 T T T
0.342939 0.500000 0.786235 T T T
0.342939 0.500000 0.835435 T T T
0.342939 0.500000 0.884635 T T T
0.342939 0.500000 0.933835 T T T
0.342939 0.500000 0.983035 T T T
0.301279 0.500000 0.712435 T T T
0.301279 0.500000 0.761635 T T T
0.301279 0.500000 0.810835 T T T
0.301279 0.500000 0.860035 T T T
0.301279 0.500000 0.909235 T T T
0.301279 0.500000 0.958435 T T T
0.301279 0.500000 0.007635 T T T
0.426279 0.500000 0.687835 T T T
0.426279 0.500000 0.737035 T T T
0.426279 0.500000 0.786235 T T T
0.426279 0.500000 0.835435 T T T
0.426279 0.500000 0.884635 T T T
0.426279 0.500000 0.933835 T T T
0.426279 0.500000 0.983035 T T T
0.467939 0.500000 0.712435 T T T
0.467939 0.500000 0.761635 T T T
0.467939 0.500000 0.810835 T T T
0.467939 0.500000 0.860035 T T T
0.467939 0.500000 0.909235 T T T
0.467939 0.500000 0.958435 T T T
0.467939 0.500000 0.007635 T T T
0.592939 0.500000 0.687835 T T T
0.592939 0.500000 0.737035 T T T
0.592939 0.500000 0.786235 T T T
0.592939 0.500000 0.835435 T T T
0.592939 0.500000 0.884635 T T T
0.592939 0.500000 0.933835 T T T
0.592939 0.500000 0.983035 T T T
0.551279 0.500000 0.712435 T T T
0.551279 0.500000 0.761635 T T T
0.551279 0.500000 0.810835 T T T
0.551279 0.500000 0.860035 T T T
0.551279 0.500000 0.909235 T T T
0.551279 0.500000 0.958435 T T T
0.551279 0.500000 0.007635 T T T
0.676279 0.500000 0.687835 T T T
0.676279 0.500000 0.737035 T T T
0.676279 0.500000 0.786235 T T T
0.676279 0.500000 0.835435 T T T
0.676279 0.500000 0.884635 T T T
0.676279 0.500000 0.933835 T T T
0.676279 0.500000 0.983035 T T T
0.717939 0.500000 0.712435 T T T
0.717939 0.500000 0.761635 T T T
0.717939 0.500000 0.810835 T T T
0.717939 0.500000 0.860035 T T T
0.717939 0.500000 0.909235 T T T
0.717939 0.500000 0.958435 T T T
0.717939 0.500000 0.007635 T T T
0.842939 0.500000 0.687835 T T T
0.842939 0.500000 0.737035 T T T
0.842939 0.500000 0.786235 T T T
0.842939 0.500000 0.835435 T T T
0.842939 0.500000 0.884635 T T T
0.842939 0.500000 0.933835 T T T
0.842939 0.500000 0.983035 T T T
0.801279 0.500000 0.712435 T T T
0.801279 0.500000 0.761635 T T T
0.801279 0.500000 0.810835 T T T
0.801279 0.500000 0.860035 T T T
0.801279 0.500000 0.909235 T T T
0.801279 0.500000 0.958435 T T T
0.801279 0.500000 0.007635 T T T
0.926279 0.500000 0.687835 T T T
0.926279 0.500000 0.737035 T T T
0.926279 0.500000 0.786235 T T T
0.926279 0.500000 0.835435 T T T
0.926279 0.500000 0.884635 T T T
0.926279 0.500000 0.933835 T T T
0.926279 0.500000 0.983035 T T T
0.997670 0.500000 0.171310 F F F
0.997670 0.500000 0.256530 F F F
0.997670 0.500000 0.341750 F F F
0.997670 0.500000 0.426960 F F F
0.997670 0.500000 0.199720 F F F
0.997670 0.500000 0.284930 F F F
0.997670 0.500000 0.370150 F F F
0.997670 0.500000 0.455370 F F F
0.926240 0.500000 0.213920 F F F
0.926240 0.500000 0.299140 F F F
0.926240 0.500000 0.384350 F F F
0.926240 0.500000 0.469570 F F F
0.926240 0.500000 0.157110 F F F
0.926240 0.500000 0.242330 F F F
0.926240 0.500000 0.327540 F F F
0.926240 0.500000 0.412760 F F F
0.854810 0.500000 0.171310 F F F
0.854810 0.500000 0.256530 F F F
0.854810 0.500000 0.341750 F F F
0.854810 0.500000 0.426960 F F F
0.783380 0.500000 0.213920 F F F
0.783380 0.500000 0.299140 F F F
0.783380 0.500000 0.384350 F F F
0.783380 0.500000 0.469570 F F F
0.854810 0.500000 0.199720 F F F
0.854810 0.500000 0.284930 F F F
0.854810 0.500000 0.370150 F F F
0.854810 0.500000 0.455370 F F F
0.783380 0.500000 0.157110 F F F
0.783380 0.500000 0.242330 F F F
0.783380 0.500000 0.327540 F F F
0.783380 0.500000 0.412760 F F F
0.711960 0.500000 0.171310 F F F
0.711960 0.500000 0.256530 F F F
0.711960 0.500000 0.341750 F F F
0.711960 0.500000 0.426960 F F F
0.640530 0.500000 0.213920 F F F
0.640530 0.500000 0.299140 F F F
0.640530 0.500000 0.384350 F F F
0.640530 0.500000 0.469570 F F F
0.711960 0.500000 0.199720 F F F
0.711960 0.500000 0.284930 F F F
0.711960 0.500000 0.370150 F F F
0.711960 0.500000 0.455370 F F F
0.640530 0.500000 0.157110 F F F
0.640530 0.500000 0.242330 F F F
0.640530 0.500000 0.327540 F F F
0.640530 0.500000 0.412760 F F F
0.569100 0.500000 0.171310 F F F
0.569100 0.500000 0.256530 F F F
0.569100 0.500000 0.341750 F F F
0.569100 0.500000 0.426960 F F F
0.497670 0.500000 0.213920 F F F
0.497670 0.500000 0.299140 F F F
0.497670 0.500000 0.384350 F F F
0.497670 0.500000 0.469570 F F F
0.569100 0.500000 0.199720 F F F
0.569100 0.500000 0.284930 F F F
0.569100 0.500000 0.370150 F F F
0.569100 0.500000 0.455370 F F F
0.497670 0.500000 0.157110 F F F
0.497670 0.500000 0.242330 F F F
0.497670 0.500000 0.327540 F F F
0.497670 0.500000 0.412760 F F F
0.426240 0.500000 0.171310 F F F
0.426240 0.500000 0.256530 F F F
0.426240 0.500000 0.341750 F F F
0.426240 0.500000 0.426960 F F F
0.354810 0.500000 0.213920 F F F
0.354810 0.500000 0.299140 F F F
0.354810 0.500000 0.384350 F F F
0.354810 0.500000 0.469570 F F F
0.426240 0.500000 0.199720 F F F
0.426240 0.500000 0.284930 F F F
0.426240 0.500000 0.370150 F F F
0.426240 0.500000 0.455370 F F F
0.354810 0.500000 0.157110 F F F
0.354810 0.500000 0.242330 F F F
0.354810 0.500000 0.327540 F F F
0.354810 0.500000 0.412760 F F F
0.283380 0.500000 0.171310 F F F
0.283380 0.500000 0.256530 F F F
0.283380 0.500000 0.341750 F F F
0.283380 0.500000 0.426960 F F F
0.211960 0.500000 0.213920 F F F
0.211960 0.500000 0.299140 F F F
0.211960 0.500000 0.384350 F F F
0.211960 0.500000 0.469570 F F F
0.283380 0.500000 0.199720 F F F
0.283380 0.500000 0.284930 F F F
0.283380 0.500000 0.370150 F F F
0.283380 0.500000 0.455370 F F F
0.211960 0.500000 0.157110 F F F
0.211960 0.500000 0.242330 F F F
0.211960 0.500000 0.327540 F F F
0.211960 0.500000 0.412760 F F F
0.140530 0.500000 0.171310 F F F
0.140530 0.500000 0.256530 F F F
0.140530 0.500000 0.341750 F F F
0.140530 0.500000 0.426960 F F F
0.069100 0.500000 0.213920 F F F
0.069100 0.500000 0.299140 F F F
0.069100 0.500000 0.384350 F F F
0.069100 0.500000 0.469570 F F F
0.140530 0.500000 0.199720 F F F
0.140530 0.500000 0.284930 F F F
0.140530 0.500000 0.370150 F F F
0.140530 0.500000 0.455370 F F F
0.069100 0.500000 0.157110 F F F
0.069100 0.500000 0.242330 F F F
0.069100 0.500000 0.327540 F F F
0.069100 0.500000 0.412760 F F F
0.040335 0.281006 0.579550 T T T
0.905150 0.955934 0.558397 T T T
0.447292 0.216884 0.573879 T T T
0.021694 0.551886 0.532334 T T T
0.713476 0.208431 0.501211 T T T
0.502057 0.704830 0.551140 T T T
0.836000 0.017868 0.598391 T T T
0.465859 0.027211 0.665569 T T T
0.882200 0.112968 0.551630 T T T
0.044887 0.829018 0.657208 T T T
0.977938 0.276610 0.655980 T T T
0.427776 0.484360 0.508234 T T T
0.987939 0.917754 0.657403 T T T
0.437241 0.795869 0.534622 T T T
0.072939 0.805925 0.472942 T T T
0.381616 0.197535 0.586735 T T T
0.227956 0.847614 0.539979 T T T
0.896341 0.536055 0.640624 T T T
0.065592 0.729151 0.588230 T T T
0.628739 0.735760 0.667842 T T T
0.981823 0.457283 0.573117 T T T
0.554332 0.394432 0.610675 T T T
0.494446 0.434502 0.595924 T T T
0.486245 0.610551 0.630050 T T T
0.556604 0.628642 0.496007 T T T
0.231817 0.114413 0.683344 T T T
0.411243 0.970047 0.480428 T T T
0.500245 0.493850 0.498029 T T T
0.925998 0.674131 0.579132 T T T
0.426440 0.969030 0.583146 T T T
0.907656 0.322991 0.497183 T T T
0.992710 0.691928 0.529950 T T T
0.313984 0.142661 0.592302 T T T
0.967939 0.500000 0.712435 T T T
0.967939 0.500000 0.761635 T T T
0.967939 0.500000 0.810835 T T T
0.967939 0.500000 0.860035 T T T
0.967939 0.500000 0.909235 T T T
0.967939 0.500000 0.958435 T T T
0.967939 0.500000 0.007635 T T T
0.092939 0.500000 0.687835 T T T
0.092939 0.500000 0.737035 T T T
0.092939 0.500000 0.786235 T T T
0.092939 0.500000 0.835435 T T T
0.092939 0.500000 0.884635 T T T
0.092939 0.500000 0.933835 T T T
0.092939 0.500000 0.983035 T T T
0.051279 0.500000 0.712435 T T T
0.051279 0.500000 0.761635 T T T
0.051279 0.500000 0.810835 T T T
0.051279 0.500000 0.860035 T T T
0.051279 0.500000 0.909235 T T T
0.051279 0.500000 0.958435 T T T
0.051279 0.500000 0.007635 T T T
0.176279 0.500000 0.687835 T T T
0.176279 0.500000 0.737035 T T T
0.176279 0.500000 0.786235 T T T
0.176279 0.500000 0.835435 T T T
0.176279 0.500000 0.884635 T T T
0.176279 0.500000 0.933835 T T T
0.176279 0.500000 0.983035 T T T
0.217939 0.500000 0.712435 T T T
0.217939 0.500000 0.761635 T T T
0.934659 0.500000 0.027385 T T T
0.084549 0.500000 0.027385 T T T
0.184789 0.500000 0.027405 T T T
0.334549 0.500000 0.027385 T T T
0.434789 0.500000 0.027405 T T T
0.584549 0.500000 0.027385 T T T
0.684789 0.500000 0.027405 T T T
0.834549 0.500000 0.027385 T T T
0.926100 0.500000 0.134310 F F F
0.783520 0.500000 0.134310 F F F
0.640670 0.500000 0.134310 F F F
0.497810 0.500000 0.134310 F F F
0.354950 0.500000 0.134310 F F F
0.212100 0.500000 0.134310 F F F
0.068960 0.500000 0.134310 F F F
0.666245 0.461230 0.531745 T T T
0.030832 0.868598 0.485481 T T T
0.422171 0.466806 0.649704 T T T
0.574433 0.736280 0.679125 T T T
0.690205 0.504193 0.644149 T T T
0.606511 0.681962 0.487373 T T T
0.046475 0.861157 0.506457 T T T
0.012114 0.472123 0.518758 T T T
0.750907 0.695238 0.658432 T T T
0.523817 0.830729 0.620288 T T T
0.497641 0.979326 0.539775 T T T
0.177105 0.003748 0.592382 T T T
0.943229 0.649516 0.516769 T T T
0.585111 0.948978 0.613539 T T T
0.418075 0.662043 0.530961 T T T
0.145015 0.103284 0.563440 T T T
0.222871 0.813060 0.586649 T T T
0.229973 0.641810 0.589483 T T T
0.109094 0.473923 0.628028 T T T
0.349841 0.972237 0.667335 T T T
0.873306 0.441059 0.645158 T T T
0.004482 0.628083 0.677822 T T T
0.892082 0.866689 0.572533 T T T
0.688925 0.314896 0.522193 T T T
0.188711 0.813670 0.595360 T T T
0.307522 0.225213 0.523459 T T T
0.285303 0.812864 0.534270 T T T
0.001353 0.152405 0.652597 T T T
