search
1.0
17.131700 0.000000 0.000000
0.000000 10.000000 0.000000
0.000000 0.000000 50.000000
C H 
227 73 
Selective dynamics
Direct
0.157088 0.500000 0.825760 T T T
0.157088 0.500000 0.874960 T T T
0.157088 0.500000 0.924160 T T T
0.157088 0.500000 0.973360 T T T
0.157088 0.500000 0.022560 T T T
0.282088 0.500000 0.702760 T T T
0.282088 0.500000 0.751960 T T T
0.282088 0.500000 0.801160 T T T
0.282088 0.500000 0.850360 T T T
0.282088 0.500000 0.899560 T T T
0.282088 0.500000 0.948760 T T T
0.282088 0.500000 0.997960 T T T
0.240428 0.500000 0.727360 T T T
0.240428 0.500000 0.776560 T T T
0.240428 0.500000 0.825760 T T T
0.240428 0.500000 0.874960 T T T
0.240428 0.500000 0.924160 T T T
0.240428 0.500000 0.973360 T T T
0.240428 0.500000 0.022560 T T T
0.365428 0.500000 0.702760 T T T
0.365428 0.500000 0.751960 T T T
0.365428 0.500000 0.801160 T T T
0.365428 0.500000 0.850360 T T T
0.365428 0.500000 0.899560 T T T
0.365428 0.500000 0.948760 T T T
0.365428 0.500000 0.997960 T T T
0.407088 0.500000 0.727360 T T T
0.407088 0.500000 0.776560 T T T
0.407088 0.500000 0.825760 T T T
0.407088 0.500000 0.874960 T T T
0.407088 0.500000 0.924160 T T T
0.407088 0.500000 0.973360 T T T
0.407088 0.500000 0.022560 T T T
0.532088 0.500000 0.702760 T T T
0.532088 0.500000 0.751960 T T T
0.532088 0.500000 0.801160 T T T
0.532088 0.500000 0.850360 T T T
0.532088 0.500000 0.899560 T T T
0.532088 0.500000 0.948760 T T T
0.532088 0.500000 0.997960 T T T
0.490428 0.500000 0.727360 T T T
0.490428 0.500000 0.776560 T T T
0.490428 0.500000 0.825760 T T T
0.490428 0.500000 0.874960 T T T
0.490428 0.500000 0.924160 T T T
0.490428 0.500000 0.973360 T T T
0.490428 0.500000 0.022560 T T T
0.615428 0.500000 0.702760 T T T
0.615428 0.500000 0.751960 T T T
0.615428 0.500000 0.801160 T T T
0.615428 0.500000 0.850360 T T T
0.615428 0.500000 0.899560 T T T
0.615428 0.500000 0.948760 T T T
0.615428 0.500000 0.997960 T T T
0.657088 0.500000 0.727360 T T T
0.657088 0.500000 0.776560 T T T
0.657088 0.500000 0.825760 T T T
0.657088 0.500000 0.874960 T T T
0.657088 0.500000 0.924160 T T T
0.657088 0.500000 0.973360 T T T
0.657088 0.500000 0.022560 T T T
0.782088 0.500000 0.702760 T T T
0.782088 0.500000 0.751960 T T T
0.782088 0.500000 0.801160 T T T
0.782088 0.500000 0.850360 T T T
0.782088 0.500000 0.899560 T T T
0.782088 0.500000 0.948760 T T T
0.782088 0.500000 0.997960 T T T
0.740428 0.500000 0.727360 T T T
0.740428 0.500000 0.776560 T T T
0.740428 0.500000 0.825760 T T T
0.740428 0.500000 0.874960 T T T
0.740428 0.500000 0.924160 T T T
0.740428 0.500000 0.973360 T T T
0.740428 0.500000 0.022560 T T T
0.865428 0.500000 0.702760 T T T
0.865428 0.500000 0.751960 T T T
0.865428 0.500000 0.801160 T T T
0.865428 0.500000 0.850360 T T T
0.865428 0.500000 0.899560 T T T
0.865428 0.500000 0.948760 T T T
0.865428 0.500000 0.997960 T T T
0.997670 0.500000 0.171310 F F F
0.997670 0.500000 0.256530 F F F
0.997670 0.500000 0.341750 F F F
0.997670 0.500000 0.426960 F F F
0.997670 0.500000 0.199720 F F F
0.997670 0.500000 0.284930 F F F
0.997670 0.500000 0.370150 F F F
0.997670 0.500000 0.455370 F F F
0.926240 0.500000 0.213920 F F F
0.926240 0.500000 0.299140 F F F
0.926240 0.500000 0.384350 F F F
0.926240 0.500000 0.469570 F F F
0.926240 0.500000 0.157110 F F F
0.926240 0.500000 0.242330 F F F
0.926240 0.500000 0.327540 F F F
0.926240 0.500000 0.412760 F F F
0.854810 0.500000 0.171310 F F F
0.854810 0.500000 0.256530 F F F
0.854810 0.500000 0.341750 F F F
0.854810 0.500000 0.426960 F F F
0.783380 0.500000 0.213920 F F F
0.783380 0.500000 0.299140 F F F
0.783380 0.500000 0.384350 F F F
0.783380 0.500000 0.469570 F F F
0.854810 0.500000 0.199720 F F F
0.854810 0.500000 0.284930 F F F
0.854810 0.500000 0.370150 F F F
0.854810 0.500000 0.455370 F F F
0.783380 0.500000 0.157110 F F F
0.783380 0.500000 0.242330 F F F
0.783380 0.500000 0.327540 F F F
0.783380 0.500000 0.412760 F F F
0.711960 0.500000 0.171310 F F F
0.711960 0.500000 0.256530 F F F
0.711960 0.500000 0.341750 F F F
0.711960 0.500000 0.426960 F F F
0.640530 0.500000 0.213920 F F F
0.640530 0.500000 0.299140 F F F
0.640530 0.500000 0.384350 F F F
0.640530 0.500000 0.469570 F F F
0.711960 0.500000 0.199720 F F F
0.711960 0.500000 0.284930 F F F
0.711960 0.500000 0.370150 F F F
0.711960 0.500000 0.455370 F F F
0.640530 0.500000 0.157110 F F F
0.640530 0.500000 0.242330 F F F
0.640530 0.500000 0.327540 F F F
0.640530 0.500000 0.412760 F F F
0.569100 0.500000 0.171310 F F F
0.569100 0.500000 0.256530 F F F
0.569100 0.500000 0.341750 F F F
0.569100 0.500000 0.426960 F F F
0.497670 0.500000 0.213920 F F F
0.497670 0.500000 0.299140 F F F
0.497670 0.500000 0.384350 F F F
0.497670 0.500000 0.469570 F F F
0.569100 0.500000 0.199720 F F F
0.569100 0.500000 0.284930 F F F
0.569100 0.500000 0.370150 F F F
0.569100 0.500000 0.455370 F F F
0.497670 0.500000 0.157110 F F F
0.497670 0.500000 0.242330 F F F
0.497670 0.500000 0.327540 F F F
0.497670 0.500000 0.412760 F F F
0.426240 0.500000 0.171310 F F F
0.426240 0.500000 0.256530 F F F
0.426240 0.500000 0.341750 F F F
0.426240 0.500000 0.426960 F F F
0.354810 0.500000 0.213920 F F F
0.354810 0.500000 0.299140 F F F
0.354810 0.500000 0.384350 F F F
0.354810 0.500000 0.469570 F F F
0.426240 0.500000 0.199720 F F F
0.426240 0.500000 0.284930 F F F
0.426240 0.500000 0.370150 F F F
0.426240 0.500000 0.455370 F F F
0.354810 0.500000 0.157110 F F F
0.354810 0.500000 0.242330 F F F
0.354810 0.500000 0.327540 F F F
0.354810 0.500000 0.412760 F F F
0.283380 0.500000 0.171310 F F F
0.283380 0.500000 0.256530 F F F
0.283380 0.500000 0.341750 F F F
0.283380 0.500000 0.426960 F F F
0.211960 0.500000 0.213920 F F F
0.211960 0.500000 0.299140 F F F
0.211960 0.500000 0.384350 F F F
0.211960 0.500000 0.469570 F F F
0.283380 0.500000 0.199720 F F F
0.283380 0.500000 0.284930 F F F
0.283380 0.500000 0.370150 F F F
0.283380 0.500000 0.455370 F F F
0.211960 0.500000 0.157110 F F F
0.211960 0.500000 0.242330 F F F
0.211960 0.500000 0.327540 F F F
0.211960 0.500000 0.412760 F F F
0.140530 0.500000 0.171310 F F F
0.140530 0.500000 0.256530 F F F
0.140530 0.500000 0.341750 F F F
0.140530 0.500000 0.426960 F F F
0.069100 0.500000 0.213920 F F F
0.069100 0.500000 0.299140 F F F
0.069100 0.500000 0.384350 F F F
0.069100 0.500000 0.469570 F F F
0.140530 0.500000 0.199720 F F F
0.140530 0.500000 0.284930 F F F
0.140530 0.500000 0.370150 F F F
0.140530 0.500000 0.455370 F F F
0.069100 0.500000 0.157110 F F F
0.069100 0.500000 0.242330 F F F
0.069100 0.500000 0.327540 F F F
0.069100 0.500000 0.412760 F F F
0.817251 0.929543 0.542456 T T T
0.490545 0.711343 0.488508 T T T
0.755809 0.030900 0.554329 T T T
0.035332 0.343672 0.476552 T T T
0.186730 0.609448 0.556958 T T T
0.954994 0.169108 0.525549 T T T
0.142616 0.977013 0.547214 T T T
0.794476 0.966339 0.515028 T T T
0.752261 0.567610 0.491474 T T T
0.468122 0.839433 0.518998 T T T
0.946206 0.896211 0.525374 T T T
0.776232 0.485678 0.580070 T T T
0.407147 0.496379 0.592025 T T T
0.155856 0.624854 0.603618 T T T
0.289010 0.545259 0.638199 T T T
0.781130 0.832588 0.649862 T T T
0.469589 0.413216 0.606433 T T T
0.415630 0.561699 0.623184 T T T
0.468181 0.439517 0.636285 T T T
0.327568 0.024021 0.625011 T T T
0.026407 0.263520 0.608769 T T T
0.742651 0.111298 0.533699 T T T
0.267736 0.373748 0.577592 T T T
0.165337 0.460056 0.702533 T T T
0.190579 0.181421 0.691706 T T T
0.398384 0.511731 0.653833 T T T
0.015792 0.893632 0.604293 T T T
0.472319 0.047402 0.688808 T T T
0.055688 0.238356 0.684396 T T T
0.306339 0.525297 0.665013 T T T
0.887937 0.299999 0.609612 T T T
0.206631 0.280643 0.625214 T T T
0.718584 0.688376 0.605059 T T T
0.907088 0.500000 0.727360 T T T
0.907088 0.500000 0.776560 T T T
0.907088 0.500000 0.825760 T T T
0.907088 0.500000 0.874960 T T T
0.907088 0.500000 0.924160 T T T
0.907088 0.500000 0.973360 T T T
0.907088 0.500000 0.022560 T T T
0.032088 0.500000 0.702760 T T T
0.032088 0.500000 0.751960 T T T
0.032088 0.500000 0.801160 T T T
0.032088 0.500000 0.850360 T T T
0.032088 0.500000 0.899560 T T T
0.032088 0.500000 0.948760 T T T
0.032088 0.500000 0.997960 T T T
0.990428 0.500000 0.727360 T T T
0.990428 0.500000 0.776560 T T T
0.990428 0.500000 0.825760 T T T
0.990428 0.500000 0.874960 T T T
0.990428 0.500000 0.924160 T T T
0.990428 0.500000 0.973360 T T T
0.990428 0.500000 0.022560 T T T
0.115428 0.500000 0.702760 T T T
0.115428 0.500000 0.751960 T T T
0.115428 0.500000 0.801160 T T T
0.115428 0.500000 0.850360 T T T
0.115428 0.500000 0.899560 T T T
0.115428 0.500000 0.948760 T T T
0.115428 0.500000 0.997960 T T T
0.157088 0.500000 0.727360 T T T
0.157088 0.500000 0.776560 T T T
0.873808 0.500000 0.042310 T T T
0.023698 0.500000 0.042310 T T T
0.123938 0.500000 0.042330 T T T
0.273698 0.500000 0.042310 T T T
0.373938 0.500000 0.042330 T T T
0.523698 0.500000 0.042310 T T T
0.623938 0.500000 0.042330 T T T
0.773698 0.500000 0.042310 T T T
0.926100 0.500000 0.134310 F F F
0.783520 0.500000 0.134310 F F F
0.640670 0.500000 0.134310 F F F
0.497810 0.500000 0.134310 F F F
0.354950 0.500000 0.134310 F F F
0.212100 0.500000 0.134310 F F F
0.068960 0.500000 0.134310 F F F
0.027299 0.156648 0.526754 T T T
0.616544 0.518709 0.495480 T T T
0.195314 0.241968 0.566236 T T T
0.004070 0.131378 0.510214 T T T
0.638426 0.275732 0.555065 T T T
0.839090 0.531897 0.590580 T T T
0.013756 0.530488 0.556853 T T T
0.373335 0.636309 0.471384 T T T
0.833400 0.925427 0.562673 T T T
0.351869 0.486592 0.595526 T T T
0.232407 0.566352 0.585727 T T T
0.263556 0.829725 0.522435 T T T
0.497887 0.414057 0.589302 T T T
0.774589 0.311377 0.637145 T T T
0.178297 0.437390 0.551109 T T T
0.666379 0.513928 0.545814 T T T
0.162307 0.819893 0.622423 T T T
0.502612 0.779592 0.507098 T T T
0.182288 0.150946 0.611508 T T T
0.366248 0.436008 0.641581 T T T
0.264395 0.799894 0.624824 T T T
0.223055 0.417270 0.671846 T T T
0.229842 0.696992 0.631089 T T T
0.413808 0.840360 0.693101 T T T
0.725580 0.681252 0.701062 T T T
0.033194 0.271142 0.629652 T T T
0.548936 0.310971 0.614324 T T T
0.599984 0.617863 0.598451 T T T
