search
1.0
17.131700 0.000000 0.000000
0.000000 10.000000 0.000000
0.000000 0.000000 50.000000
C H 
227 73 
Selective dynamics
Direct
0.170864 0.500000 0.844615 T T T
0.170864 0.500000 0.893815 T T T
0.170864 0.500000 0.943015 T T T
0.170864 0.500000 0.992215 T T T
0.170864 0.500000 0.041415 T T T
0.295864 0.500000 0.721615 T T T
0.295864 0.500000 0.770815 T T T
0.295864 0.500000 0.820015 T T T
0.295864 0.500000 0.869215 T T T
0.295864 0.500000 0.918415 T T T
0.295864 0.500000 0.967615 T T T
0.295864 0.500000 0.016815 T T T
0.254204 0.500000 0.746215 T T T
0.254204 0.500000 0.795415 T T T
0.254204 0.500000 0.844615 T T T
0.254204 0.500000 0.893815 T T T
0.254204 0.500000 0.943015 T T T
0.254204 0.500000 0.992215 T T T
0.254204 0.500000 0.041415 T T T
0.379204 0.500000 0.721615 T T T
0.379204 0.500000 0.770815 T T T
0.379204 0.500000 0.820015 T T T
0.379204 0.500000 0.869215 T T T
0.379204 0.500000 0.918415 T T T
0.379204 0.500000 0.967615 T T T
0.379204 0.500000 0.016815 T T T
0.420864 0.500000 0.746215 T T T
0.420864 0.500000 0.795415 T T T
0.420864 0.500000 0.844615 T T T
0.420864 0.500000 0.893815 T T T
0.420864 0.500000 0.943015 T T T
0.420864 0.500000 0.992215 T T T
0.420864 0.500000 0.041415 T T T
0.545864 0.500000 0.721615 T T T
0.545864 0.500000 0.770815 T T T
0.545864 0.500000 0.820015 T T T
0.545864 0.500000 0.869215 T T T
0.545864 0.500000 0.918415 T T T
0.545864 0.500000 0.967615 T T T
0.545864 0.500000 0.016815 T T T
0.504204 0.500000 0.746215 T T T
0.504204 0.500000 0.795415 T T T
0.504204 0.500000 0.844615 T T T
0.504204 0.500000 0.893815 T T T
0.504204 0.500000 0.943015 T T T
0.504204 0.500000 0.992215 T T T
0.504204 0.500000 0.041415 T T T
0.629204 0.500000 0.721615 T T T
0.629204 0.500000 0.770815 T T T
0.629204 0.500000 0.820015 T T T
0.629204 0.500000 0.869215 T T T
0.629204 0.500000 0.918415 T T T
0.629204 0.500000 0.967615 T T T
0.629204 0.500000 0.016815 T T T
0.670864 0.500000 0.746215 T T T
0.670864 0.500000 0.795415 T T T
0.670864 0.500000 0.844615 T T T
0.670864 0.500000 0.893815 T T T
0.670864 0.500000 0.943015 T T T
0.670864 0.500000 0.992215 T T T
0.670864 0.500000 0.041415 T T T
0.795864 0.500000 0.721615 T T T
0.795864 0.500000 0.770815 T T T
0.795864 0.500000 0.820015 T T T
0.795864 0.500000 0.869215 T T T
0.795864 0.500000 0.918415 T T T
0.795864 0.500000 0.967615 T T T
0.795864 0.500000 0.016815 T T T
0.754204 0.500000 0.746215 T T T
0.754204 0.500000 0.795415 T T T
0.754204 0.500000 0.844615 T T T
0.754204 0.500000 0.893815 T T T
0.754204 0.500000 0.943015 T T T
0.754204 0.500000 0.992215 T T T
0.754204 0.500000 0.041415 T T T
0.879204 0.500000 0.721615 T T T
0.879204 0.500000 0.770815 T T T
0.879204 0.500000 0.820015 T T T
0.879204 0.500000 0.869215 T T T
0.879204 0.500000 0.918415 T T T
0.879204 0.500000 0.967615 T T T
0.879204 0.500000 0.016815 T T T
0.997670 0.500000 0.171310 F F F
0.997670 0.500000 0.256530 F F F
0.997670 0.500000 0.341750 F F F
0.997670 0.500000 0.426960 F F F
0.997670 0.500000 0.199720 F F F
0.997670 0.500000 0.284930 F F F
0.997670 0.500000 0.370150 F F F
0.997670 0.500000 0.455370 F F F
0.926240 0.500000 0.213920 F F F
0.926240 0.500000 0.299140 F F F
0.926240 0.500000 0.384350 F F F
0.926240 0.500000 0.469570 F F F
0.926240 0.500000 0.157110 F F F
0.926240 0.500000 0.242330 F F F
0.926240 0.500000 0.327540 F F F
0.926240 0.500000 0.412760 F F F
0.854810 0.500000 0.171310 F F F
0.854810 0.500000 0.256530 F F F
0.854810 0.500000 0.341750 F F F
0.854810 0.500000 0.426960 F F F
0.783380 0.500000 0.213920 F F F
0.783380 0.500000 0.299140 F F F
0.783380 0.500000 0.384350 F F F
0.783380 0.500000 0.469570 F F F
0.854810 0.500000 0.199720 F F F
0.854810 0.500000 0.284930 F F F
0.854810 0.500000 0.370150 F F F
0.854810 0.500000 0.455370 F F F
0.783380 0.500000 0.157110 F F F
0.783380 0.500000 0.242330 F F F
0.783380 0.500000 0.327540 F F F
0.783380 0.500000 0.412760 F F F
0.711960 0.500000 0.171310 F F F
0.711960 0.500000 0.256530 F F F
0.711960 0.500000 0.341750 F F F
0.711960 0.500000 0.426960 F F F
0.640530 0.500000 0.213920 F F F
0.640530 0.500000 0.299140 F F F
0.640530 0.500000 0.384350 F F F
0.640530 0.500000 0.469570 F F F
0.711960 0.500000 0.199720 F F F
0.711960 0.500000 0.284930 F F F
0.711960 0.500000 0.370150 F F F
0.711960 0.500000 0.455370 F F F
0.640530 0.500000 0.157110 F F F
0.640530 0.500000 0.242330 F F F
0.640530 0.500000 0.327540 F F F
0.640530 0.500000 0.412760 F F F
0.569100 0.500000 0.171310 F F F
0.569100 0.500000 0.256530 F F F
0.569100 0.500000 0.341750 F F F
0.569100 0.500000 0.426960 F F F
0.497670 0.500000 0.213920 F F F
0.497670 0.500000 0.299140 F F F
0.497670 0.500000 0.384350 F F F
0.497670 0.500000 0.469570 F F F
0.569100 0.500000 0.199720 F F F
0.569100 0.500000 0.284930 F F F
0.569100 0.500000 0.370150 F F F
0.569100 0.500000 0.455370 F F F
0.497670 0.500000 0.157110 F F F
0.497670 0.500000 0.242330 F F F
0.497670 0.500000 0.327540 F F F
0.497670 0.500000 0.412760 F F F
0.426240 0.500000 0.171310 F F F
0.426240 0.500000 0.256530 F F F
0.426240 0.500000 0.341750 F F F
0.426240 0.500000 0.426960 F F F
0.354810 0.500000 0.213920 F F F
0.354810 0.500000 0.299140 F F F
0.354810 0.500000 0.384350 F F F
0.354810 0.500000 0.469570 F F F
0.426240 0.500000 0.199720 F F F
0.426240 0.500000 0.284930 F F F
0.426240 0.500000 0.370150 F F F
0.426240 0.500000 0.455370 F F F
0.354810 0.500000 0.157110 F F F
0.354810 0.500000 0.242330 F F F
0.354810 0.500000 0.327540 F F F
0.354810 0.500000 0.412760 F F F
0.283380 0.500000 0.171310 F F F
0.283380 0.500000 0.256530 F F F
0.283380 0.500000 0.341750 F F F
0.283380 0.500000 0.426960 F F F
0.211960 0.500000 0.213920 F F F
0.211960 0.500000 0.299140 F F F
0.211960 0.500000 0.384350 F F F
0.211960 0.500000 0.469570 F F F
0.283380 0.500000 0.199720 F F F
0.283380 0.500000 0.284930 F F F
0.283380 0.500000 0.370150 F F F
0.283380 0.500000 0.455370 F F F
0.211960 0.500000 0.157110 F F F
0.211960 0.500000 0.242330 F F F
0.211960 0.500000 0.327540 F F F
0.211960 0.500000 0.412760 F F F
0.140530 0.500000 0.171310 F F F
0.140530 0.500000 0.256530 F F F
0.140530 0.500000 0.341750 F F F
0.140530 0.500000 0.426960 F F F
0.069100 0.500000 0.213920 F F F
0.069100 0.500000 0.299140 F F F
0.069100 0.500000 0.384350 F F F
0.069100 0.500000 0.469570 F F F
0.140530 0.500000 0.199720 F F F
0.140530 0.500000 0.284930 F F F
0.140530 0.500000 0.370150 F F F
0.140530 0.500000 0.455370 F F F
0.069100 0.500000 0.157110 F F F
0.069100 0.500000 0.242330 F F F
0.069100 0.500000 0.327540 F F F
0.069100 0.500000 0.412760 F F F
0.499441 0.187095 0.492253 T T T
0.595558 0.948500 0.488601 T T T
0.340742 0.307215 0.527436 T T T
0.123454 0.272334 0.469994 T T T
0.226116 0.724176 0.498144 T T T
0.845522 0.147136 0.531460 T T T
0.938466 0.230878 0.506810 T T T
0.716997 0.202719 0.470003 T T T
0.029217 0.741246 0.471400 T T T
0.920567 0.716568 0.501520 T T T
0.877564 0.955569 0.469990 T T T
0.467705 0.600807 0.534318 T T T
0.173044 0.863239 0.542420 T T T
0.338582 0.507189 0.536372 T T T
0.183051 0.783780 0.563173 T T T
0.695005 0.897546 0.536171 T T T
0.770144 0.867387 0.538950 T T T
0.848229 0.876999 0.535509 T T T
0.497281 0.887937 0.669441 T T T
0.571201 0.906266 0.566600 T T T
0.140582 0.942245 0.502651 T T T
0.303631 0.011536 0.539538 T T T
0.414701 0.108765 0.667719 T T T
0.032439 0.373290 0.717900 T T T
0.444035 0.398082 0.717896 T T T
0.234407 0.948683 0.537203 T T T
0.055816 0.923678 0.633332 T T T
0.857880 0.250149 0.623355 T T T
0.094289 0.307688 0.711798 T T T
0.554090 0.780921 0.574033 T T T
0.412068 0.512845 0.528400 T T T
0.182284 0.687390 0.630469 T T T
0.142758 0.722246 0.652169 T T T
0.920864 0.500000 0.746215 T T T
0.920864 0.500000 0.795415 T T T
0.920864 0.500000 0.844615 T T T
0.920864 0.500000 0.893815 T T T
0.920864 0.500000 0.943015 T T T
0.920864 0.500000 0.992215 T T T
0.920864 0.500000 0.041415 T T T
0.045864 0.500000 0.721615 T T T
0.045864 0.500000 0.770815 T T T
0.045864 0.500000 0.820015 T T T
0.045864 0.500000 0.869215 T T T
0.045864 0.500000 0.918415 T T T
0.045864 0.500000 0.967615 T T T
0.045864 0.500000 0.016815 T T T
0.004204 0.500000 0.746215 T T T
0.004204 0.500000 0.795415 T T T
0.004204 0.500000 0.844615 T T T
0.004204 0.500000 0.893815 T T T
0.004204 0.500000 0.943015 T T T
0.004204 0.500000 0.992215 T T T
0.004204 0.500000 0.041415 T T T
0.129204 0.500000 0.721615 T T T
0.129204 0.500000 0.770815 T T T
0.129204 0.500000 0.820015 T T T
0.129204 0.500000 0.869215 T T T
0.129204 0.500000 0.918415 T T T
0.129204 0.500000 0.967615 T T T
0.129204 0.500000 0.016815 T T T
0.170864 0.500000 0.746215 T T T
0.170864 0.500000 0.795415 T T T
0.887584 0.500000 0.061165 T T T
0.037474 0.500000 0.061165 T T T
0.137714 0.500000 0.061185 T T T
0.287474 0.500000 0.061165 T T T
0.387714 0.500000 0.061185 T T T
0.537474 0.500000 0.061165 T T T
0.637714 0.500000 0.061185 T T T
0.787474 0.500000 0.061165 T T T
0.926100 0.500000 0.134310 F F F
0.783520 0.500000 0.134310 F F F
0.640670 0.500000 0.134310 F F F
0.497810 0.500000 0.134310 F F F
0.354950 0.500000 0.134310 F F F
0.212100 0.500000 0.134310 F F F
0.068960 0.500000 0.134310 F F F
0.181281 0.230732 0.519055 T T T
0.479738 0.300048 0.533087 T T T
0.027571 0.867043 0.537599 T T T
0.911307 0.980143 0.520997 T T T
0.484760 0.901289 0.592324 T T T
0.092876 0.173389 0.621222 T T T
0.695408 0.294163 0.511114 T T T
0.009544 0.359094 0.483634 T T T
0.575882 0.594357 0.512819 T T T
0.777567 0.617543 0.573007 T T T
0.881652 0.695067 0.654142 T T T
0.267043 0.184699 0.617152 T T T
0.968733 0.237963 0.599799 T T T
0.856242 0.736009 0.639271 T T T
0.856763 0.896215 0.663461 T T T
0.027419 0.949786 0.684084 T T T
0.782992 0.396067 0.705790 T T T
0.609304 0.131935 0.581136 T T T
0.361973 0.973873 0.683715 T T T
0.047906 0.524084 0.691485 T T T
0.086743 0.890990 0.719997 T T T
0.368765 0.195884 0.720007 T T T
0.179083 0.598697 0.699832 T T T
0.323222 0.728294 0.671304 T T T
0.260001 0.965906 0.661289 T T T
0.012826 0.537155 0.656265 T T T
0.540261 0.460839 0.587893 T T T
0.835656 0.296923 0.642716 T T T
