search
1.0
17.131700 0.000000 0.000000
0.000000 10.000000 0.000000
0.000000 0.000000 50.000000
C H 
227 73 
Selective dynamics
Direct
0.439764 0.500000 0.814344 T T T
0.439764 0.500000 0.863544 T T T
0.439764 0.500000 0.912744 T T T
0.439764 0.500000 0.961944 T T T
0.439764 0.500000 0.011144 T T T
0.564764 0.500000 0.691344 T T T
0.564764 0.500000 0.740544 T T T
0.564764 0.500000 0.789744 T T T
0.564764 0.500000 0.838944 T T T
0.564764 0.500000 0.888144 T T T
0.564764 0.500000 0.937344 T T T
0.564764 0.500000 0.986544 T T T
0.523104 0.500000 0.715944 T T T
0.523104 0.500000 0.765144 T T T
0.523104 0.500000 0.814344 T T T
0.523104 0.500000 0.863544 T T T
0.523104 0.500000 0.912744 T T T
0.523104 0.500000 0.961944 T T T
0.523104 0.500000 0.011144 T T T
0.648104 0.500000 0.691344 T T T
0.648104 0.500000 0.740544 T T T
0.648104 0.500000 0.789744 T T T
0.648104 0.500000 0.838944 T T T
0.648104 0.500000 0.888144 T T T
0.648104 0.500000 0.937344 T T T
0.648104 0.500000 0.986544 T T T
0.689764 0.500000 0.715944 T T T
0.689764 0.500000 0.765144 T T T
0.689764 0.500000 0.814344 T T T
0.689764 0.500000 0.863544 T T T
0.689764 0.500000 0.912744 T T T
0.689764 0.500000 0.961944 T T T
0.689764 0.500000 0.011144 T T T
0.814764 0.500000 0.691344 T T T
0.814764 0.500000 0.740544 T T T
0.814764 0.500000 0.789744 T T T
0.814764 0.500000 0.838944 T T T
0.814764 0.500000 0.888144 T T T
0.814764 0.500000 0.937344 T T T
0.814764 0.500000 0.986544 T T T
0.773104 0.500000 0.715944 T T T
0.773104 0.500000 0.765144 T T T
0.773104 0.500000 0.814344 T T T
0.773104 0.500000 0.863544 T T T
0.773104 0.500000 0.912744 T T T
0.773104 0.500000 0.961944 T T T
0.773104 0.500000 0.011144 T T T
0.898104 0.500000 0.691344 T T T
0.898104 0.500000 0.740544 T T T
0.898104 0.500000 0.789744 T T T
0.898104 0.500000 0.838944 T T T
0.898104 0.500000 0.888144 T T T
0.898104 0.500000 0.937344 T T T
0.898104 0.500000 0.986544 T T T
0.939764 0.500000 0.715944 T T T
0.939764 0.500000 0.765144 T T T
0.939764 0.500000 0.814344 T T T
0.939764 0.500000 0.863544 T T T
0.939764 0.500000 0.912744 T T T
0.939764 0.500000 0.961944 T T T
0.939764 0.500000 0.011144 T T T
0.064764 0.500000 0.691344 T T T
0.064764 0.500000 0.740544 T T T
0.064764 0.500000 0.789744 T T T
0.064764 0.500000 0.838944 T T T
0.064764 0.500000 0.888144 T T T
0.064764 0.500000 0.937344 T T T
0.064764 0.500000 0.986544 T T T
0.023104 0.500000 0.715944 T T T
0.023104 0.500000 0.765144 T T T
0.023104 0.500000 0.814344 T T T
0.023104 0.500000 0.863544 T T T
0.023104 0.500000 0.912744 T T T
0.023104 0.500000 0.961944 T T T
0.023104 0.500000 0.011144 T T T
0.148104 0.500000 0.691344 T T T
0.148104 0.500000 0.740544 T T T
0.148104 0.500000 0.789744 T T T
0.148104 0.500000 0.838944 T T T
0.148104 0.500000 0.888144 T T T
0.148104 0.500000 0.937344 T T T
0.148104 0.500000 0.986544 T T T
0.997670 0.500000 0.171310 F F F
0.997670 0.500000 0.256530 F F F
0.997670 0.500000 0.341750 F F F
0.997670 0.500000 0.426960 F F F
0.997670 0.500000 0.199720 F F F
0.997670 0.500000 0.284930 F F F
0.997670 0.500000 0.370150 F F F
0.997670 0.500000 0.455370 F F F
0.926240 0.500000 0.213920 F F F
0.926240 0.500000 0.299140 F F F
0.926240 0.500000 0.384350 F F F
0.926240 0.500000 0.469570 F F F
0.926240 0.500000 0.157110 F F F
0.926240 0.500000 0.242330 F F F
0.926240 0.500000 0.327540 F F F
0.926240 0.500000 0.412760 F F F
0.854810 0.500000 0.171310 F F F
0.854810 0.500000 0.256530 F F F
0.854810 0.500000 0.341750 F F F
0.854810 0.500000 0.426960 F F F
0.783380 0.500000 0.213920 F F F
0.783380 0.500000 0.299140 F F F
0.783380 0.500000 0.384350 F F F
0.783380 0.500000 0.469570 F F F
0.854810 0.500000 0.199720 F F F
0.854810 0.500000 0.284930 F F F
0.854810 0.500000 0.370150 F F F
0.854810 0.500000 0.455370 F F F
0.783380 0.500000 0.157110 F F F
0.783380 0.500000 0.242330 F F F
0.783380 0.500000 0.327540 F F F
0.783380 0.500000 0.412760 F F F
0.711960 0.500000 0.171310 F F F
0.711960 0.500000 0.256530 F F F
0.711960 0.500000 0.341750 F F F
0.711960 0.500000 0.426960 F F F
0.640530 0.500000 0.213920 F F F
0.640530 0.500000 0.299140 F F F
0.640530 0.500000 0.384350 F F F
0.640530 0.500000 0.469570 F F F
0.711960 0.500000 0.199720 F F F
0.711960 0.500000 0.284930 F F F
0.711960 0.500000 0.370150 F F F
0.711960 0.500000 0.455370 F F F
0.640530 0.500000 0.157110 F F F
0.640530 0.500000 0.242330 F F F
0.640530 0.500000 0.327540 F F F
0.640530 0.500000 0.412760 F F F
0.569100 0.500000 0.171310 F F F
0.569100 0.500000 0.256530 F F F
0.569100 0.500000 0.341750 F F F
0.569100 0.500000 0.426960 F F F
0.497670 0.500000 0.213920 F F F
0.497670 0.500000 0.299140 F F F
0.497670 0.500000 0.384350 F F F
0.497670 0.500000 0.469570 F F F
0.569100 0.500000 0.199720 F F F
0.569100 0.500000 0.284930 F F F
0.569100 0.500000 0.370150 F F F
0.569100 0.500000 0.455370 F F F
0.497670 0.500000 0.157110 F F F
0.497670 0.500000 0.242330 F F F
0.497670 0.500000 0.327540 F F F
0.497670 0.500000 0.412760 F F F
0.426240 0.500000 0.171310 F F F
0.426240 0.500000 0.256530 F F F
0.426240 0.500000 0.341750 F F F
0.426240 0.500000 0.426960 F F F
0.354810 0.500000 0.213920 F F F
0.354810 0.500000 0.299140 F F F
0.354810 0.500000 0.384350 F F F
0.354810 0.500000 0.469570 F F F
0.426240 0.500000 0.199720 F F F
0.426240 0.500000 0.284930 F F F
0.426240 0.500000 0.370150 F F F
0.426240 0.500000 0.455370 F F F
0.354810 0.500000 0.157110 F F F
0.354810 0.500000 0.242330 F F F
0.354810 0.500000 0.327540 F F F
0.354810 0.500000 0.412760 F F F
0.283380 0.500000 0.171310 F F F
0.283380 0.500000 0.256530 F F F
0.283380 0.500000 0.341750 F F F
0.283380 0.500000 0.426960 F F F
0.211960 0.500000 0.213920 F F F
0.211960 0.500000 0.299140 F F F
0.211960 0.500000 0.384350 F F F
0.211960 0.500000 0.469570 F F F
0.283380 0.500000 0.199720 F F F
0.283380 0.500000 0.284930 F F F
0.283380 0.500000 0.370150 F F F
0.283380 0.500000 0.455370 F F F
0.211960 0.500000 0.157110 F F F
0.211960 0.500000 0.242330 F F F
0.211960 0.500000 0.327540 F F F
0.211960 0.500000 0.412760 F F F
0.140530 0.500000 0.171310 F F F
0.140530 0.500000 0.256530 F F F
0.140530 0.500000 0.341750 F F F
0.140530 0.500000 0.426960 F F F
0.069100 0.500000 0.213920 F F F
0.069100 0.500000 0.299140 F F F
0.069100 0.500000 0.384350 F F F
0.069100 0.500000 0.469570 F F F
0.140530 0.500000 0.199720 F F F
0.140530 0.500000 0.284930 F F F
0.140530 0.500000 0.370150 F F F
0.140530 0.500000 0.455370 F F F
0.069100 0.500000 0.157110 F F F
0.069100 0.500000 0.242330 F F F
0.069100 0.500000 0.327540 F F F
0.069100 0.500000 0.412760 F F F
0.137115 0.049029 0.510132 T T T
0.582731 0.442704 0.479580 T T T
0.562126 0.354992 0.515871 T T T
0.277919 0.528456 0.482863 T T T
0.193130 0.626540 0.501424 T T T
0.851206 0.864874 0.469870 T T T
0.892627 0.906721 0.489580 T T T
0.232941 0.241063 0.517086 T T T
0.713657 0.479336 0.500505 T T T
0.692569 0.723385 0.469998 T T T
0.645176 0.012962 0.479495 T T T
0.201443 0.001472 0.500361 T T T
0.105936 0.272075 0.549698 T T T
0.699408 0.172936 0.578228 T T T
0.711360 0.966539 0.514634 T T T
0.285903 0.809199 0.604059 T T T
0.359744 0.843557 0.612147 T T T
0.839721 0.778124 0.574428 T T T
0.408086 0.735627 0.574678 T T T
0.779658 0.624903 0.521839 T T T
0.908581 0.799567 0.563913 T T T
0.792993 0.862760 0.566400 T T T
0.167595 0.097029 0.653952 T T T
0.848458 0.556523 0.627021 T T T
0.937149 0.661007 0.689989 T T T
0.932172 0.710354 0.633788 T T T
0.438550 0.016201 0.599211 T T T
0.525394 0.193779 0.640371 T T T
0.592459 0.089527 0.664361 T T T
0.795125 0.389827 0.681191 T T T
0.018286 0.686650 0.618957 T T T
0.804816 0.780374 0.674176 T T T
0.037172 0.913806 0.628355 T T T
0.189764 0.500000 0.715944 T T T
0.189764 0.500000 0.765144 T T T
0.189764 0.500000 0.814344 T T T
0.189764 0.500000 0.863544 T T T
0.189764 0.500000 0.912744 T T T
0.189764 0.500000 0.961944 T T T
0.189764 0.500000 0.011144 T T T
0.314764 0.500000 0.691344 T T T
0.314764 0.500000 0.740544 T T T
0.314764 0.500000 0.789744 T T T
0.314764 0.500000 0.838944 T T T
0.314764 0.500000 0.888144 T T T
0.314764 0.500000 0.937344 T T T
0.314764 0.500000 0.986544 T T T
0.273104 0.500000 0.715944 T T T
0.273104 0.500000 0.765144 T T T
0.273104 0.500000 0.814344 T T T
0.273104 0.500000 0.863544 T T T
0.273104 0.500000 0.912744 T T T
0.273104 0.500000 0.961944 T T T
0.273104 0.500000 0.011144 T T T
0.398104 0.500000 0.691344 T T T
0.398104 0.500000 0.740544 T T T
0.398104 0.500000 0.789744 T T T
0.398104 0.500000 0.838944 T T T
0.398104 0.500000 0.888144 T T T
0.398104 0.500000 0.937344 T T T
0.398104 0.500000 0.986544 T T T
0.439764 0.500000 0.715944 T T T
0.439764 0.500000 0.765144 T T T
0.156484 0.500000 0.030894 T T T
0.306374 0.500000 0.030894 T T T
0.406614 0.500000 0.030914 T T T
0.556374 0.500000 0.030894 T T T
0.656614 0.500000 0.030914 T T T
0.806374 0.500000 0.030894 T T T
0.906614 0.500000 0.030914 T T T
0.056374 0.500000 0.030894 T T T
0.926100 0.500000 0.134310 F F F
0.783520 0.500000 0.134310 F F F
0.640670 0.500000 0.134310 F F F
0.497810 0.500000 0.134310 F F F
0.354950 0.500000 0.134310 F F F
0.212100 0.500000 0.134310 F F F
0.068960 0.500000 0.134310 F F F
0.278131 0.106792 0.501880 T T T
0.081704 0.093044 0.490318 T T T
0.175817 0.383613 0.514256 T T T
0.171961 0.472110 0.534954 T T T
0.651417 0.038164 0.518010 T T T
0.107790 0.112633 0.530708 T T T
0.240830 0.577825 0.500780 T T T
0.589511 0.602149 0.493229 T T T
0.960295 0.880634 0.498352 T T T
0.026524 0.629243 0.531355 T T T
0.194184 0.724952 0.610492 T T T
0.167540 0.708436 0.557042 T T T
0.018401 0.948956 0.540524 T T T
0.891128 0.195338 0.538585 T T T
0.928865 0.435520 0.642066 T T T
0.163310 0.471557 0.521474 T T T
0.133022 0.762423 0.531811 T T T
0.602331 0.827167 0.590874 T T T
0.534128 0.148257 0.679641 T T T
0.956759 0.008506 0.602938 T T T
0.414892 0.638996 0.664409 T T T
0.701671 0.570561 0.591388 T T T
0.364810 0.562393 0.665379 T T T
0.532242 0.038538 0.690963 T T T
0.933702 0.641674 0.647779 T T T
0.020752 0.304271 0.584518 T T T
0.604808 0.395708 0.552274 T T T
0.856192 0.704274 0.638743 T T T
