search
1.0
17.131700 0.000000 0.000000
0.000000 10.000000 0.000000
0.000000 0.000000 50.000000
C H 
227 73 
Selective dynamics
Direct
0.503361 0.500000 0.784754 T T T
0.503361 0.500000 0.833954 T T T
0.503361 0.500000 0.883154 T T T
0.503361 0.500000 0.932354 T T T
0.503361 0.500000 0.981554 T T T
0.628361 0.500000 0.661754 T T T
0.628361 0.500000 0.710954 T T T
0.628361 0.500000 0.760154 T T T
0.628361 0.500000 0.809354 T T T
0.628361 0.500000 0.858554 T T T
0.628361 0.500000 0.907754 T T T
0.628361 0.500000 0.956954 T T T
0.586701 0.500000 0.686354 T T T
0.586701 0.500000 0.735554 T T T
0.586701 0.500000 0.784754 T T T
0.586701 0.500000 0.833954 T T T
0.586701 0.500000 0.883154 T T T
0.586701 0.500000 0.932354 T T T
0.586701 0.500000 0.981554 T T T
0.711701 0.500000 0.661754 T T T
0.711701 0.500000 0.710954 T T T
0.711701 0.500000 0.760154 T T T
0.711701 0.500000 0.809354 T T T
0.711701 0.500000 0.858554 T T T
0.711701 0.500000 0.907754 T T T
0.711701 0.500000 0.956954 T T T
0.753361 0.500000 0.686354 T T T
0.753361 0.500000 0.735554 T T T
0.753361 0.500000 0.784754 T T T
0.753361 0.500000 0.833954 T T T
0.753361 0.500000 0.883154 T T T
0.753361 0.500000 0.932354 T T T
0.753361 0.500000 0.981554 T T T
0.878361 0.500000 0.661754 T T T
0.878361 0.500000 0.710954 T T T
0.878361 0.500000 0.760154 T T T
0.878361 0.500000 0.809354 T T T
0.878361 0.500000 0.858554 T T T
0.878361 0.500000 0.907754 T T T
0.878361 0.500000 0.956954 T T T
0.836701 0.500000 0.686354 T T T
0.836701 0.500000 0.735554 T T T
0.836701 0.500000 0.784754 T T T
0.836701 0.500000 0.833954 T T T
0.836701 0.500000 0.883154 T T T
0.836701 0.500000 0.932354 T T T
0.836701 0.500000 0.981554 T T T
0.961701 0.500000 0.661754 T T T
0.961701 0.500000 0.710954 T T T
0.961701 0.500000 0.760154 T T T
0.961701 0.500000 0.809354 T T T
0.961701 0.500000 0.858554 T T T
0.961701 0.500000 0.907754 T T T
0.961701 0.500000 0.956954 T T T
0.003361 0.500000 0.686354 T T T
0.003361 0.500000 0.735554 T T T
0.003361 0.500000 0.784754 T T T
0.003361 0.500000 0.833954 T T T
0.003361 0.500000 0.883154 T T T
0.003361 0.500000 0.932354 T T T
0.003361 0.500000 0.981554 T T T
0.128361 0.500000 0.661754 T T T
0.128361 0.500000 0.710954 T T T
0.128361 0.500000 0.760154 T T T
0.128361 0.500000 0.809354 T T T
0.128361 0.500000 0.858554 T T T
0.128361 0.500000 0.907754 T T T
0.128361 0.500000 0.956954 T T T
0.086701 0.500000 0.686354 T T T
0.086701 0.500000 0.735554 T T T
0.086701 0.500000 0.784754 T T T
0.086701 0.500000 0.833954 T T T
0.086701 0.500000 0.883154 T T T
0.086701 0.500000 0.932354 T T T
0.086701 0.500000 0.981554 T T T
0.211701 0.500000 0.661754 T T T
0.211701 0.500000 0.710954 T T T
0.211701 0.500000 0.760154 T T T
0.211701 0.500000 0.809354 T T T
0.211701 0.500000 0.858554 T T T
0.211701 0.500000 0.907754 T T T
0.211701 0.500000 0.956954 T T T
0.997670 0.500000 0.171310 F F F
0.997670 0.500000 0.256530 F F F
0.997670 0.500000 0.341750 F F F
0.997670 0.500000 0.426960 F F F
0.997670 0.500000 0.199720 F F F
0.997670 0.500000 0.284930 F F F
0.997670 0.500000 0.370150 F F F
0.997670 0.500000 0.455370 F F F
0.926240 0.500000 0.213920 F F F
0.926240 0.500000 0.299140 F F F
0.926240 0.500000 0.384350 F F F
0.926240 0.500000 0.469570 F F F
0.926240 0.500000 0.157110 F F F
0.926240 0.500000 0.242330 F F F
0.926240 0.500000 0.327540 F F F
0.926240 0.500000 0.412760 F F F
0.854810 0.500000 0.171310 F F F
0.854810 0.500000 0.256530 F F F
0.854810 0.500000 0.341750 F F F
0.854810 0.500000 0.426960 F F F
0.783380 0.500000 0.213920 F F F
0.783380 0.500000 0.299140 F F F
0.783380 0.500000 0.384350 F F F
0.783380 0.500000 0.469570 F F F
0.854810 0.500000 0.199720 F F F
0.854810 0.500000 0.284930 F F F
0.854810 0.500000 0.370150 F F F
0.854810 0.500000 0.455370 F F F
0.783380 0.500000 0.157110 F F F
0.783380 0.500000 0.242330 F F F
0.783380 0.500000 0.327540 F F F
0.783380 0.500000 0.412760 F F F
0.711960 0.500000 0.171310 F F F
0.711960 0.500000 0.256530 F F F
0.711960 0.500000 0.341750 F F F
0.711960 0.500000 0.426960 F F F
0.640530 0.500000 0.213920 F F F
0.640530 0.500000 0.299140 F F F
0.640530 0.500000 0.384350 F F F
0.640530 0.500000 0.469570 F F F
0.711960 0.500000 0.199720 F F F
0.711960 0.500000 0.284930 F F F
0.711960 0.500000 0.370150 F F F
0.711960 0.500000 0.455370 F F F
0.640530 0.500000 0.157110 F F F
0.640530 0.500000 0.242330 F F F
0.640530 0.500000 0.327540 F F F
0.640530 0.500000 0.412760 F F F
0.569100 0.500000 0.171310 F F F
0.569100 0.500000 0.256530 F F F
0.569100 0.500000 0.341750 F F F
0.569100 0.500000 0.426960 F F F
0.497670 0.500000 0.213920 F F F
0.497670 0.500000 0.299140 F F F
0.497670 0.500000 0.384350 F F F
0.497670 0.500000 0.469570 F F F
0.569100 0.500000 0.199720 F F F
0.569100 0.500000 0.284930 F F F
0.569100 0.500000 0.370150 F F F
0.569100 0.500000 0.455370 F F F
0.497670 0.500000 0.157110 F F F
0.497670 0.500000 0.242330 F F F
0.497670 0.500000 0.327540 F F F
0.497670 0.500000 0.412760 F F F
0.426240 0.500000 0.171310 F F F
0.426240 0.500000 0.256530 F F F
0.426240 0.500000 0.341750 F F F
0.426240 0.500000 0.426960 F F F
0.354810 0.500000 0.213920 F F F
0.354810 0.500000 0.299140 F F F
0.354810 0.500000 0.384350 F F F
0.354810 0.500000 0.469570 F F F
0.426240 0.500000 0.199720 F F F
0.426240 0.500000 0.284930 F F F
0.426240 0.500000 0.370150 F F F
0.426240 0.500000 0.455370 F F F
0.354810 0.500000 0.157110 F F F
0.354810 0.500000 0.242330 F F F
0.354810 0.500000 0.327540 F F F
0.354810 0.500000 0.412760 F F F
0.283380 0.500000 0.171310 F F F
0.283380 0.500000 0.256530 F F F
0.283380 0.500000 0.341750 F F F
0.283380 0.500000 0.426960 F F F
0.211960 0.500000 0.213920 F F F
0.211960 0.500000 0.299140 F F F
0.211960 0.500000 0.384350 F F F
0.211960 0.500000 0.469570 F F F
0.283380 0.500000 0.199720 F F F
0.283380 0.500000 0.284930 F F F
0.283380 0.500000 0.370150 F F F
0.283380 0.500000 0.455370 F F F
0.211960 0.500000 0.157110 F F F
0.211960 0.500000 0.242330 F F F
0.211960 0.500000 0.327540 F F F
0.211960 0.500000 0.412760 F F F
0.140530 0.500000 0.171310 F F F
0.140530 0.500000 0.256530 F F F
0.140530 0.500000 0.341750 F F F
0.140530 0.500000 0.426960 F F F
0.069100 0.500000 0.213920 F F F
0.069100 0.500000 0.299140 F F F
0.069100 0.500000 0.384350 F F F
0.069100 0.500000 0.469570 F F F
0.140530 0.500000 0.199720 F F F
0.140530 0.500000 0.284930 F F F
0.140530 0.500000 0.370150 F F F
0.140530 0.500000 0.455370 F F F
0.069100 0.500000 0.157110 F F F
0.069100 0.500000 0.242330 F F F
0.069100 0.500000 0.327540 F F F
0.069100 0.500000 0.412760 F F F
0.594754 0.582132 0.480453 T T T
0.544019 0.717802 0.513757 T T T
0.542745 0.749716 0.537908 T T T
0.367276 0.756067 0.538366 T T T
0.187574 0.888035 0.494860 T T T
0.106957 0.313413 0.501495 T T T
0.191940 0.451586 0.509335 T T T
0.549776 0.418307 0.478803 T T T
0.549401 0.789139 0.494772 T T T
0.824381 0.048421 0.482326 T T T
0.069902 0.058110 0.538604 T T T
0.005106 0.306605 0.501858 T T T
0.277376 0.283623 0.482990 T T T
0.607904 0.387467 0.524778 T T T
0.577305 0.642322 0.633402 T T T
0.700557 0.067239 0.502891 T T T
0.674051 0.437529 0.651052 T T T
0.802825 0.456778 0.603262 T T T
0.659597 0.105410 0.486149 T T T
0.120746 0.191077 0.520269 T T T
0.274848 0.238653 0.505846 T T T
0.718513 0.250437 0.654689 T T T
0.587568 0.465567 0.642779 T T T
0.910383 0.174310 0.646335 T T T
0.763714 0.956851 0.650049 T T T
0.564427 0.314227 0.659397 T T T
0.149825 0.014198 0.543474 T T T
0.448776 0.193779 0.660000 T T T
0.876297 0.068367 0.659919 T T T
0.088226 0.016273 0.602881 T T T
0.246232 0.216241 0.620588 T T T
0.986536 0.842930 0.646158 T T T
0.026210 0.981206 0.629054 T T T
0.253361 0.500000 0.686354 T T T
0.253361 0.500000 0.735554 T T T
0.253361 0.500000 0.784754 T T T
0.253361 0.500000 0.833954 T T T
0.253361 0.500000 0.883154 T T T
0.253361 0.500000 0.932354 T T T
0.253361 0.500000 0.981554 T T T
0.378361 0.500000 0.661754 T T T
0.378361 0.500000 0.710954 T T T
0.378361 0.500000 0.760154 T T T
0.378361 0.500000 0.809354 T T T
0.378361 0.500000 0.858554 T T T
0.378361 0.500000 0.907754 T T T
0.378361 0.500000 0.956954 T T T
0.336701 0.500000 0.686354 T T T
0.336701 0.500000 0.735554 T T T
0.336701 0.500000 0.784754 T T T
0.336701 0.500000 0.833954 T T T
0.336701 0.500000 0.883154 T T T
0.336701 0.500000 0.932354 T T T
0.336701 0.500000 0.981554 T T T
0.461701 0.500000 0.661754 T T T
0.461701 0.500000 0.710954 T T T
0.461701 0.500000 0.760154 T T T
0.461701 0.500000 0.809354 T T T
0.461701 0.500000 0.858554 T T T
0.461701 0.500000 0.907754 T T T
0.461701 0.500000 0.956954 T T T
0.503361 0.500000 0.686354 T T T
0.503361 0.500000 0.735554 T T T
0.220081 0.500000 0.001304 T T T
0.369971 0.500000 0.001304 T T T
0.470211 0.500000 0.001324 T T T
0.619971 0.500000 0.001304 T T T
0.720211 0.500000 0.001324 T T T
0.869971 0.500000 0.001304 T T T
0.970211 0.500000 0.001324 T T T
0.119971 0.500000 0.001304 T T T
0.926100 0.500000 0.134310 F F F
0.783520 0.500000 0.134310 F F F
0.640670 0.500000 0.134310 F F F
0.497810 0.500000 0.134310 F F F
0.354950 0.500000 0.134310 F F F
0.212100 0.500000 0.134310 F F F
0.068960 0.500000 0.134310 F F F
0.379937 0.186234 0.479023 T T T
0.038515 0.009774 0.470215 T T T
0.112350 0.565479 0.514823 T T T
0.977490 0.540972 0.486367 T T T
0.112829 0.334487 0.470769 T T T
0.463133 0.235342 0.549347 T T T
0.905946 0.701205 0.480904 T T T
0.483001 0.252020 0.511633 T T T
0.329166 0.035640 0.497315 T T T
0.239313 0.869016 0.555644 T T T
0.989215 0.859874 0.501080 T T T
0.612765 0.166117 0.470399 T T T
0.728141 0.826801 0.530963 T T T
0.817094 0.241568 0.486119 T T T
0.022103 0.868069 0.493597 T T T
0.444584 0.692587 0.520242 T T T
0.657166 0.857113 0.502960 T T T
0.005507 0.108154 0.483762 T T T
0.012262 0.842637 0.587724 T T T
0.890571 0.456187 0.638174 T T T
0.947264 0.608131 0.501716 T T T
0.067138 0.095015 0.660000 T T T
0.057769 0.306385 0.594109 T T T
0.138275 0.196726 0.623043 T T T
0.352655 0.288766 0.628481 T T T
0.542110 0.358625 0.543152 T T T
0.427420 0.370306 0.501854 T T T
0.924332 0.662734 0.469792 T T T
