search
1.0
17.131700 0.000000 0.000000
0.000000 10.000000 0.000000
0.000000 0.000000 50.000000
C H 
227 73 
Selective dynamics
Direct
0.502704 0.500000 0.784693 T T T
0.502704 0.500000 0.833893 T T T
0.502704 0.500000 0.883093 T T T
0.502704 0.500000 0.932293 T T T
0.502704 0.500000 0.981493 T T T
0.627704 0.500000 0.661693 T T T
0.627704 0.500000 0.710893 T T T
0.627704 0.500000 0.760093 T T T
0.627704 0.500000 0.809293 T T T
0.627704 0.500000 0.858493 T T T
0.627704 0.500000 0.907693 T T T
0.627704 0.500000 0.956893 T T T
0.586044 0.500000 0.686293 T T T
0.586044 0.500000 0.735493 T T T
0.586044 0.500000 0.784693 T T T
0.586044 0.500000 0.833893 T T T
0.586044 0.500000 0.883093 T T T
0.586044 0.500000 0.932293 T T T
0.586044 0.500000 0.981493 T T T
0.711044 0.500000 0.661693 T T T
0.711044 0.500000 0.710893 T T T
0.711044 0.500000 0.760093 T T T
0.711044 0.500000 0.809293 T T T
0.711044 0.500000 0.858493 T T T
0.711044 0.500000 0.907693 T T T
0.711044 0.500000 0.956893 T T T
0.752704 0.500000 0.686293 T T T
0.752704 0.500000 0.735493 T T T
0.752704 0.500000 0.784693 T T T
0.752704 0.500000 0.833893 T T T
0.752704 0.500000 0.883093 T T T
0.752704 0.500000 0.932293 T T T
0.752704 0.500000 0.981493 T T T
0.877704 0.500000 0.661693 T T T
0.877704 0.500000 0.710893 T T T
0.877704 0.500000 0.760093 T T T
0.877704 0.500000 0.809293 T T T
0.877704 0.500000 0.858493 T T T
0.877704 0.500000 0.907693 T T T
0.877704 0.500000 0.956893 T T T
0.836044 0.500000 0.686293 T T T
0.836044 0.500000 0.735493 T T T
0.836044 0.500000 0.784693 T T T
0.836044 0.500000 0.833893 T T T
0.836044 0.500000 0.883093 T T T
0.836044 0.500000 0.932293 T T T
0.836044 0.500000 0.981493 T T T
0.961044 0.500000 0.661693 T T T
0.961044 0.500000 0.710893 T T T
0.961044 0.500000 0.760093 T T T
0.961044 0.500000 0.809293 T T T
0.961044 0.500000 0.858493 T T T
0.961044 0.500000 0.907693 T T T
0.961044 0.500000 0.956893 T T T
0.002704 0.500000 0.686293 T T T
0.002704 0.500000 0.735493 T T T
0.002704 0.500000 0.784693 T T T
0.002704 0.500000 0.833893 T T T
0.002704 0.500000 0.883093 T T T
0.002704 0.500000 0.932293 T T T
0.002704 0.500000 0.981493 T T T
0.127704 0.500000 0.661693 T T T
0.127704 0.500000 0.710893 T T T
0.127704 0.500000 0.760093 T T T
0.127704 0.500000 0.809293 T T T
0.127704 0.500000 0.858493 T T T
0.127704 0.500000 0.907693 T T T
0.127704 0.500000 0.956893 T T T
0.086044 0.500000 0.686293 T T T
0.086044 0.500000 0.735493 T T T
0.086044 0.500000 0.784693 T T T
0.086044 0.500000 0.833893 T T T
0.086044 0.500000 0.883093 T T T
0.086044 0.500000 0.932293 T T T
0.086044 0.500000 0.981493 T T T
0.211044 0.500000 0.661693 T T T
0.211044 0.500000 0.710893 T T T
0.211044 0.500000 0.760093 T T T
0.211044 0.500000 0.809293 T T T
0.211044 0.500000 0.858493 T T T
0.211044 0.500000 0.907693 T T T
0.211044 0.500000 0.956893 T T T
0.997670 0.500000 0.171310 F F F
0.997670 0.500000 0.256530 F F F
0.997670 0.500000 0.341750 F F F
0.997670 0.500000 0.426960 F F F
0.997670 0.500000 0.199720 F F F
0.997670 0.500000 0.284930 F F F
0.997670 0.500000 0.370150 F F F
0.997670 0.500000 0.455370 F F F
0.926240 0.500000 0.213920 F F F
0.926240 0.500000 0.299140 F F F
0.926240 0.500000 0.384350 F F F
0.926240 0.500000 0.469570 F F F
0.926240 0.500000 0.157110 F F F
0.926240 0.500000 0.242330 F F F
0.926240 0.500000 0.327540 F F F
0.926240 0.500000 0.412760 F F F
0.854810 0.500000 0.171310 F F F
0.854810 0.500000 0.256530 F F F
0.854810 0.500000 0.341750 F F F
0.854810 0.500000 0.426960 F F F
0.783380 0.500000 0.213920 F F F
0.783380 0.500000 0.299140 F F F
0.783380 0.500000 0.384350 F F F
0.783380 0.500000 0.469570 F F F
0.854810 0.500000 0.199720 F F F
0.854810 0.500000 0.284930 F F F
0.854810 0.500000 0.370150 F F F
0.854810 0.500000 0.455370 F F F
0.783380 0.500000 0.157110 F F F
0.783380 0.500000 0.242330 F F F
0.783380 0.500000 0.327540 F F F
0.783380 0.500000 0.412760 F F F
0.711960 0.500000 0.171310 F F F
0.711960 0.500000 0.256530 F F F
0.711960 0.500000 0.341750 F F F
0.711960 0.500000 0.426960 F F F
0.640530 0.500000 0.213920 F F F
0.640530 0.500000 0.299140 F F F
0.640530 0.500000 0.384350 F F F
0.640530 0.500000 0.469570 F F F
0.711960 0.500000 0.199720 F F F
0.711960 0.500000 0.284930 F F F
0.711960 0.500000 0.370150 F F F
0.711960 0.500000 0.455370 F F F
0.640530 0.500000 0.157110 F F F
0.640530 0.500000 0.242330 F F F
0.640530 0.500000 0.327540 F F F
0.640530 0.500000 0.412760 F F F
0.569100 0.500000 0.171310 F F F
0.569100 0.500000 0.256530 F F F
0.569100 0.500000 0.341750 F F F
0.569100 0.500000 0.426960 F F F
0.497670 0.500000 0.213920 F F F
0.497670 0.500000 0.299140 F F F
0.497670 0.500000 0.384350 F F F
0.497670 0.500000 0.469570 F F F
0.569100 0.500000 0.199720 F F F
0.569100 0.500000 0.284930 F F F
0.569100 0.500000 0.370150 F F F
0.569100 0.500000 0.455370 F F F
0.497670 0.500000 0.157110 F F F
0.497670 0.500000 0.242330 F F F
0.497670 0.500000 0.327540 F F F
0.497670 0.500000 0.412760 F F F
0.426240 0.500000 0.171310 F F F
0.426240 0.500000 0.256530 F F F
0.426240 0.500000 0.341750 F F F
0.426240 0.500000 0.426960 F F F
0.354810 0.500000 0.213920 F F F
0.354810 0.500000 0.299140 F F F
0.354810 0.500000 0.384350 F F F
0.354810 0.500000 0.469570 F F F
0.426240 0.500000 0.199720 F F F
0.426240 0.500000 0.284930 F F F
0.426240 0.500000 0.370150 F F F
0.426240 0.500000 0.455370 F F F
0.354810 0.500000 0.157110 F F F
0.354810 0.500000 0.242330 F F F
0.354810 0.500000 0.327540 F F F
0.354810 0.500000 0.412760 F F F
0.283380 0.500000 0.171310 F F F
0.283380 0.500000 0.256530 F F F
0.283380 0.500000 0.341750 F F F
0.283380 0.500000 0.426960 F F F
0.211960 0.500000 0.213920 F F F
0.211960 0.500000 0.299140 F F F
0.211960 0.500000 0.384350 F F F
0.211960 0.500000 0.469570 F F F
0.283380 0.500000 0.199720 F F F
0.283380 0.500000 0.284930 F F F
0.283380 0.500000 0.370150 F F F
0.283380 0.500000 0.455370 F F F
0.211960 0.500000 0.157110 F F F
0.211960 0.500000 0.242330 F F F
0.211960 0.500000 0.327540 F F F
0.211960 0.500000 0.412760 F F F
0.140530 0.500000 0.171310 F F F
0.140530 0.500000 0.256530 F F F
0.140530 0.500000 0.341750 F F F
0.140530 0.500000 0.426960 F F F
0.069100 0.500000 0.213920 F F F
0.069100 0.500000 0.299140 F F F
0.069100 0.500000 0.384350 F F F
0.069100 0.500000 0.469570 F F F
0.140530 0.500000 0.199720 F F F
0.140530 0.500000 0.284930 F F F
0.140530 0.500000 0.370150 F F F
0.140530 0.500000 0.455370 F F F
0.069100 0.500000 0.157110 F F F
0.069100 0.500000 0.242330 F F F
0.069100 0.500000 0.327540 F F F
0.069100 0.500000 0.412760 F F F
0.288663 0.848656 0.509278 T T T
0.575923 0.116768 0.480746 T T T
0.476293 0.386816 0.546417 T T T
0.488511 0.952784 0.510361 T T T
0.355747 0.982634 0.553519 T T T
0.880411 0.172299 0.500553 T T T
0.451607 0.590797 0.539901 T T T
0.258633 0.040522 0.481360 T T T
0.816456 0.105239 0.504695 T T T
0.145790 0.278585 0.469999 T T T
0.527625 0.957487 0.473202 T T T
0.977871 0.995392 0.548737 T T T
0.108893 0.933072 0.518401 T T T
0.484791 0.073694 0.489010 T T T
0.285793 0.332639 0.622980 T T T
0.091075 0.290132 0.576910 T T T
0.273754 0.070115 0.584696 T T T
0.045097 0.070323 0.609715 T T T
0.407709 0.392235 0.532518 T T T
0.942870 0.906266 0.530123 T T T
0.032048 0.896095 0.556508 T T T
0.258473 0.732953 0.564633 T T T
0.157516 0.389077 0.655561 T T T
0.265969 0.611471 0.608092 T T T
0.411245 0.468877 0.655846 T T T
0.785976 0.007776 0.660002 T T T
0.098488 0.927713 0.593836 T T T
0.601192 0.081082 0.660000 T T T
0.252527 0.711565 0.592905 T T T
0.106992 0.660395 0.623812 T T T
0.130570 0.774726 0.657368 T T T
0.083604 0.879878 0.661148 T T T
0.495103 0.901320 0.660000 T T T
0.252704 0.500000 0.686293 T T T
0.252704 0.500000 0.735493 T T T
0.252704 0.500000 0.784693 T T T
0.252704 0.500000 0.833893 T T T
0.252704 0.500000 0.883093 T T T
0.252704 0.500000 0.932293 T T T
0.252704 0.500000 0.981493 T T T
0.377704 0.500000 0.661693 T T T
0.377704 0.500000 0.710893 T T T
0.377704 0.500000 0.760093 T T T
0.377704 0.500000 0.809293 T T T
0.377704 0.500000 0.858493 T T T
0.377704 0.500000 0.907693 T T T
0.377704 0.500000 0.956893 T T T
0.336044 0.500000 0.686293 T T T
0.336044 0.500000 0.735493 T T T
0.336044 0.500000 0.784693 T T T
0.336044 0.500000 0.833893 T T T
0.336044 0.500000 0.883093 T T T
0.336044 0.500000 0.932293 T T T
0.336044 0.500000 0.981493 T T T
0.461044 0.500000 0.661693 T T T
0.461044 0.500000 0.710893 T T T
0.461044 0.500000 0.760093 T T T
0.461044 0.500000 0.809293 T T T
0.461044 0.500000 0.858493 T T T
0.461044 0.500000 0.907693 T T T
0.461044 0.500000 0.956893 T T T
0.502704 0.500000 0.686293 T T T
0.502704 0.500000 0.735493 T T T
0.219424 0.500000 0.001243 T T T
0.369314 0.500000 0.001243 T T T
0.469554 0.500000 0.001263 T T T
0.619314 0.500000 0.001243 T T T
0.719554 0.500000 0.001263 T T T
0.869314 0.500000 0.001243 T T T
0.969554 0.500000 0.001263 T T T
0.119314 0.500000 0.001243 T T T
0.926100 0.500000 0.134310 F F F
0.783520 0.500000 0.134310 F F F
0.640670 0.500000 0.134310 F F F
0.497810 0.500000 0.134310 F F F
0.354950 0.500000 0.134310 F F F
0.212100 0.500000 0.134310 F F F
0.068960 0.500000 0.134310 F F F
0.443705 0.045772 0.470213 T T T
0.926352 0.343068 0.529790 T T T
0.027565 0.046518 0.487135 T T T
0.782353 0.163142 0.547285 T T T
0.509854 0.615586 0.472432 T T T
0.082410 0.628247 0.470762 T T T
0.580607 0.937644 0.468730 T T T
0.320732 0.408453 0.483242 T T T
0.842133 0.890506 0.534348 T T T
0.106860 0.290395 0.523095 T T T
0.504544 0.506543 0.583584 T T T
0.458211 0.319025 0.560628 T T T
0.533142 0.444376 0.582819 T T T
0.889227 0.125598 0.541921 T T T
0.014622 0.486432 0.573525 T T T
0.822260 0.432555 0.518023 T T T
0.680275 0.814279 0.553089 T T T
0.707618 0.922464 0.595431 T T T
0.353999 0.232440 0.657115 T T T
0.080953 0.537927 0.602741 T T T
0.686998 0.789937 0.566275 T T T
0.068541 0.967261 0.616269 T T T
0.721976 0.846924 0.616604 T T T
0.448516 0.511120 0.648957 T T T
0.680866 0.255677 0.660000 T T T
0.537053 0.695716 0.569626 T T T
0.558914 0.778037 0.515850 T T T
0.173798 0.805685 0.638163 T T T
