search
1.0
17.131700 0.000000 0.000000
0.000000 10.000000 0.000000
0.000000 0.000000 50.000000
C H 
227 73 
Selective dynamics
Direct
0.384192 0.500000 0.784530 T T T
0.384192 0.500000 0.833730 T T T
0.384192 0.500000 0.882930 T T T
0.384192 0.500000 0.932130 T T T
0.384192 0.500000 0.981330 T T T
0.509192 0.500000 0.661530 T T T
0.509192 0.500000 0.710730 T T T
0.509192 0.500000 0.759930 T T T
0.509192 0.500000 0.809130 T T T
0.509192 0.500000 0.858330 T T T
0.509192 0.500000 0.907530 T T T
0.509192 0.500000 0.956730 T T T
0.467532 0.500000 0.686130 T T T
0.467532 0.500000 0.735330 T T T
0.467532 0.500000 0.784530 T T T
0.467532 0.500000 0.833730 T T T
0.467532 0.500000 0.882930 T T T
0.467532 0.500000 0.932130 T T T
0.467532 0.500000 0.981330 T T T
0.592532 0.500000 0.661530 T T T
0.592532 0.500000 0.710730 T T T
0.592532 0.500000 0.759930 T T T
0.592532 0.500000 0.809130 T T T
0.592532 0.500000 0.858330 T T T
0.592532 0.500000 0.907530 T T T
0.592532 0.500000 0.956730 T T T
0.634192 0.500000 0.686130 T T T
0.634192 0.500000 0.735330 T T T
0.634192 0.500000 0.784530 T T T
0.634192 0.500000 0.833730 T T T
0.634192 0.500000 0.882930 T T T
0.634192 0.500000 0.932130 T T T
0.634192 0.500000 0.981330 T T T
0.759192 0.500000 0.661530 T T T
0.759192 0.500000 0.710730 T T T
0.759192 0.500000 0.759930 T T T
0.759192 0.500000 0.809130 T T T
0.759192 0.500000 0.858330 T T T
0.759192 0.500000 0.907530 T T T
0.759192 0.500000 0.956730 T T T
0.717532 0.500000 0.686130 T T T
0.717532 0.500000 0.735330 T T T
0.717532 0.500000 0.784530 T T T
0.717532 0.500000 0.833730 T T T
0.717532 0.500000 0.882930 T T T
0.717532 0.500000 0.932130 T T T
0.717532 0.500000 0.981330 T T T
0.842532 0.500000 0.661530 T T T
0.842532 0.500000 0.710730 T T T
0.842532 0.500000 0.759930 T T T
0.842532 0.500000 0.809130 T T T
0.842532 0.500000 0.858330 T T T
0.842532 0.500000 0.907530 T T T
0.842532 0.500000 0.956730 T T T
0.884192 0.500000 0.686130 T T T
0.884192 0.500000 0.735330 T T T
0.884192 0.500000 0.784530 T T T
0.884192 0.500000 0.833730 T T T
0.884192 0.500000 0.882930 T T T
0.884192 0.500000 0.932130 T T T
0.884192 0.500000 0.981330 T T T
0.009192 0.500000 0.661530 T T T
0.009192 0.500000 0.710730 T T T
0.009192 0.500000 0.759930 T T T
0.009192 0.500000 0.809130 T T T
0.009192 0.500000 0.858330 T T T
0.009192 0.500000 0.907530 T T T
0.009192 0.500000 0.956730 T T T
0.967532 0.500000 0.686130 T T T
0.967532 0.500000 0.735330 T T T
0.967532 0.500000 0.784530 T T T
0.967532 0.500000 0.833730 T T T
0.967532 0.500000 0.882930 T T T
0.967532 0.500000 0.932130 T T T
0.967532 0.500000 0.981330 T T T
0.092532 0.500000 0.661530 T T T
0.092532 0.500000 0.710730 T T T
0.092532 0.500000 0.759930 T T T
0.092532 0.500000 0.809130 T T T
0.092532 0.500000 0.858330 T T T
0.092532 0.500000 0.907530 T T T
0.092532 0.500000 0.956730 T T T
0.997670 0.500000 0.171310 F F F
0.997670 0.500000 0.256530 F F F
0.997670 0.500000 0.341750 F F F
0.997670 0.500000 0.426960 F F F
0.997670 0.500000 0.199720 F F F
0.997670 0.500000 0.284930 F F F
0.997670 0.500000 0.370150 F F F
0.997670 0.500000 0.455370 F F F
0.926240 0.500000 0.213920 F F F
0.926240 0.500000 0.299140 F F F
0.926240 0.500000 0.384350 F F F
0.926240 0.500000 0.469570 F F F
0.926240 0.500000 0.157110 F F F
0.926240 0.500000 0.242330 F F F
0.926240 0.500000 0.327540 F F F
0.926240 0.500000 0.412760 F F F
0.854810 0.500000 0.171310 F F F
0.854810 0.500000 0.256530 F F F
0.854810 0.500000 0.341750 F F F
0.854810 0.500000 0.426960 F F F
0.783380 0.500000 0.213920 F F F
0.783380 0.500000 0.299140 F F F
0.783380 0.500000 0.384350 F F F
0.783380 0.500000 0.469570 F F F
0.854810 0.500000 0.199720 F F F
0.854810 0.500000 0.284930 F F F
0.854810 0.500000 0.370150 F F F
0.854810 0.500000 0.455370 F F F
0.783380 0.500000 0.157110 F F F
0.783380 0.500000 0.242330 F F F
0.783380 0.500000 0.327540 F F F
0.783380 0.500000 0.412760 F F F
0.711960 0.500000 0.171310 F F F
0.711960 0.500000 0.256530 F F F
0.711960 0.500000 0.341750 F F F
0.711960 0.500000 0.426960 F F F
0.640530 0.500000 0.213920 F F F
0.640530 0.500000 0.299140 F F F
0.640530 0.500000 0.384350 F F F
0.640530 0.500000 0.469570 F F F
0.711960 0.500000 0.199720 F F F
0.711960 0.500000 0.284930 F F F
0.711960 0.500000 0.370150 F F F
0.711960 0.500000 0.455370 F F F
0.640530 0.500000 0.157110 F F F
0.640530 0.500000 0.242330 F F F
0.640530 0.500000 0.327540 F F F
0.640530 0.500000 0.412760 F F F
0.569100 0.500000 0.171310 F F F
0.569100 0.500000 0.256530 F F F
0.569100 0.500000 0.341750 F F F
0.569100 0.500000 0.426960 F F F
0.497670 0.500000 0.213920 F F F
0.497670 0.500000 0.299140 F F F
0.497670 0.500000 0.384350 F F F
0.497670 0.500000 0.469570 F F F
0.569100 0.500000 0.199720 F F F
0.569100 0.500000 0.284930 F F F
0.569100 0.500000 0.370150 F F F
0.569100 0.500000 0.455370 F F F
0.497670 0.500000 0.157110 F F F
0.497670 0.500000 0.242330 F F F
0.497670 0.500000 0.327540 F F F
0.497670 0.500000 0.412760 F F F
0.426240 0.500000 0.171310 F F F
0.426240 0.500000 0.256530 F F F
0.426240 0.500000 0.341750 F F F
0.426240 0.500000 0.426960 F F F
0.354810 0.500000 0.213920 F F F
0.354810 0.500000 0.299140 F F F
0.354810 0.500000 0.384350 F F F
0.354810 0.500000 0.469570 F F F
0.426240 0.500000 0.199720 F F F
0.426240 0.500000 0.284930 F F F
0.426240 0.500000 0.370150 F F F
0.426240 0.500000 0.455370 F F F
0.354810 0.500000 0.157110 F F F
0.354810 0.500000 0.242330 F F F
0.354810 0.500000 0.327540 F F F
0.354810 0.500000 0.412760 F F F
0.283380 0.500000 0.171310 F F F
0.283380 0.500000 0.256530 F F F
0.283380 0.500000 0.341750 F F F
0.283380 0.500000 0.426960 F F F
0.211960 0.500000 0.213920 F F F
0.211960 0.500000 0.299140 F F F
0.211960 0.500000 0.384350 F F F
0.211960 0.500000 0.469570 F F F
0.283380 0.500000 0.199720 F F F
0.283380 0.500000 0.284930 F F F
0.283380 0.500000 0.370150 F F F
0.283380 0.500000 0.455370 F F F
0.211960 0.500000 0.157110 F F F
0.211960 0.500000 0.242330 F F F
0.211960 0.500000 0.327540 F F F
0.211960 0.500000 0.412760 F F F
0.140530 0.500000 0.171310 F F F
0.140530 0.500000 0.256530 F F F
0.140530 0.500000 0.341750 F F F
0.140530 0.500000 0.426960 F F F
0.069100 0.500000 0.213920 F F F
0.069100 0.500000 0.299140 F F F
0.069100 0.500000 0.384350 F F F
0.069100 0.500000 0.469570 F F F
0.140530 0.500000 0.199720 F F F
0.140530 0.500000 0.284930 F F F
0.140530 0.500000 0.370150 F F F
0.140530 0.500000 0.455370 F F F
0.069100 0.500000 0.157110 F F F
0.069100 0.500000 0.242330 F F F
0.069100 0.500000 0.327540 F F F
0.069100 0.500000 0.412760 F F F
0.963008 0.461447 0.488258 T T T
0.297895 0.940176 0.502596 T T T
0.208099 0.685834 0.539766 T T T
0.639832 0.135975 0.549211 T T T
0.314579 0.160304 0.469998 T T T
0.516837 0.305379 0.522495 T T T
0.587899 0.617250 0.501929 T T T
0.561292 0.839757 0.500979 T T T
0.033651 0.694767 0.487532 T T T
0.692618 0.017842 0.496563 T T T
0.013587 0.904630 0.504606 T T T
0.110587 0.803851 0.554420 T T T
0.183959 0.021486 0.509964 T T T
0.250187 0.876984 0.510745 T T T
0.028186 0.185973 0.580383 T T T
0.016505 0.528615 0.481215 T T T
0.764386 0.758768 0.527872 T T T
0.894124 0.104465 0.586673 T T T
0.448651 0.505903 0.521277 T T T
0.415719 0.715215 0.506696 T T T
0.977388 0.920189 0.485126 T T T
0.464816 0.054502 0.621515 T T T
0.964064 0.187512 0.662272 T T T
0.277408 0.038168 0.619012 T T T
0.712480 0.161193 0.607309 T T T
0.322779 0.010096 0.637685 T T T
0.720375 0.961811 0.558682 T T T
0.925190 0.269687 0.649497 T T T
0.882174 0.895969 0.620626 T T T
0.598501 0.926873 0.576712 T T T
0.653268 0.149873 0.660000 T T T
0.764405 0.207073 0.637134 T T T
0.887347 0.161263 0.660271 T T T
0.134192 0.500000 0.686130 T T T
0.134192 0.500000 0.735330 T T T
0.134192 0.500000 0.784530 T T T
0.134192 0.500000 0.833730 T T T
0.134192 0.500000 0.882930 T T T
0.134192 0.500000 0.932130 T T T
0.134192 0.500000 0.981330 T T T
0.259192 0.500000 0.661530 T T T
0.259192 0.500000 0.710730 T T T
0.259192 0.500000 0.759930 T T T
0.259192 0.500000 0.809130 T T T
0.259192 0.500000 0.858330 T T T
0.259192 0.500000 0.907530 T T T
0.259192 0.500000 0.956730 T T T
0.217532 0.500000 0.686130 T T T
0.217532 0.500000 0.735330 T T T
0.217532 0.500000 0.784530 T T T
0.217532 0.500000 0.833730 T T T
0.217532 0.500000 0.882930 T T T
0.217532 0.500000 0.932130 T T T
0.217532 0.500000 0.981330 T T T
0.342532 0.500000 0.661530 T T T
0.342532 0.500000 0.710730 T T T
0.342532 0.500000 0.759930 T T T
0.342532 0.500000 0.809130 T T T
0.342532 0.500000 0.858330 T T T
0.342532 0.500000 0.907530 T T T
0.342532 0.500000 0.956730 T T T
0.384192 0.500000 0.686130 T T T
0.384192 0.500000 0.735330 T T T
0.100912 0.500000 0.001080 T T T
0.250802 0.500000 0.001080 T T T
0.351042 0.500000 0.001100 T T T
0.500802 0.500000 0.001080 T T T
0.601042 0.500000 0.001100 T T T
0.750802 0.500000 0.001080 T T T
0.851042 0.500000 0.001100 T T T
0.000802 0.500000 0.001080 T T T
0.926100 0.500000 0.134310 F F F
0.783520 0.500000 0.134310 F F F
0.640670 0.500000 0.134310 F F F
0.497810 0.500000 0.134310 F F F
0.354950 0.500000 0.134310 F F F
0.212100 0.500000 0.134310 F F F
0.068960 0.500000 0.134310 F F F
0.441171 0.915331 0.470000 T T T
0.745899 0.294416 0.476536 T T T
0.758151 0.618900 0.470501 T T T
0.132983 0.678418 0.484852 T T T
0.107647 0.144280 0.470000 T T T
0.827942 0.256913 0.470005 T T T
0.005638 0.633884 0.470880 T T T
0.802037 0.878467 0.497061 T T T
0.958871 0.136073 0.508613 T T T
0.272541 0.728242 0.509412 T T T
0.255371 0.038060 0.556225 T T T
0.581361 0.960640 0.533025 T T T
0.296028 0.418107 0.497780 T T T
0.484449 0.023044 0.501910 T T T
0.659623 0.298617 0.500389 T T T
0.304729 0.358623 0.514631 T T T
0.479633 0.268341 0.507798 T T T
0.055475 0.631128 0.541372 T T T
0.495820 0.148636 0.605979 T T T
0.865519 0.733649 0.614400 T T T
0.381715 0.674920 0.530752 T T T
0.001069 0.695278 0.659797 T T T
0.288422 0.854304 0.579665 T T T
0.364804 0.650559 0.589335 T T T
0.570791 0.671713 0.587499 T T T
0.562264 0.559085 0.593001 T T T
0.010496 0.720284 0.639389 T T T
0.854685 0.925172 0.542879 T T T
