search
1.0
17.131700 0.000000 0.000000
0.000000 10.000000 0.000000
0.000000 0.000000 50.000000
C H 
227 73 
Selective dynamics
Direct
0.359220 0.500000 0.804919 T T T
0.359220 0.500000 0.854119 T T T
0.359220 0.500000 0.903319 T T T
0.359220 0.500000 0.952519 T T T
0.359220 0.500000 0.001719 T T T
0.484220 0.500000 0.681919 T T T
0.484220 0.500000 0.731119 T T T
0.484220 0.500000 0.780319 T T T
0.484220 0.500000 0.829519 T T T
0.484220 0.500000 0.878719 T T T
0.484220 0.500000 0.927919 T T T
0.484220 0.500000 0.977119 T T T
0.442560 0.500000 0.706519 T T T
0.442560 0.500000 0.755719 T T T
0.442560 0.500000 0.804919 T T T
0.442560 0.500000 0.854119 T T T
0.442560 0.500000 0.903319 T T T
0.442560 0.500000 0.952519 T T T
0.442560 0.500000 0.001719 T T T
0.567560 0.500000 0.681919 T T T
0.567560 0.500000 0.731119 T T T
0.567560 0.500000 0.780319 T T T
0.567560 0.500000 0.829519 T T T
0.567560 0.500000 0.878719 T T T
0.567560 0.500000 0.927919 T T T
0.567560 0.500000 0.977119 T T T
0.609220 0.500000 0.706519 T T T
0.609220 0.500000 0.755719 T T T
0.609220 0.500000 0.804919 T T T
0.609220 0.500000 0.854119 T T T
0.609220 0.500000 0.903319 T T T
0.609220 0.500000 0.952519 T T T
0.609220 0.500000 0.001719 T T T
0.734220 0.500000 0.681919 T T T
0.734220 0.500000 0.731119 T T T
0.734220 0.500000 0.780319 T T T
0.734220 0.500000 0.829519 T T T
0.734220 0.500000 0.878719 T T T
0.734220 0.500000 0.927919 T T T
0.734220 0.500000 0.977119 T T T
0.692560 0.500000 0.706519 T T T
0.692560 0.500000 0.755719 T T T
0.692560 0.500000 0.804919 T T T
0.692560 0.500000 0.854119 T T T
0.692560 0.500000 0.903319 T T T
0.692560 0.500000 0.952519 T T T
0.692560 0.500000 0.001719 T T T
0.817560 0.500000 0.681919 T T T
0.817560 0.500000 0.731119 T T T
0.817560 0.500000 0.780319 T T T
0.817560 0.500000 0.829519 T T T
0.817560 0.500000 0.878719 T T T
0.817560 0.500000 0.927919 T T T
0.817560 0.500000 0.977119 T T T
0.859220 0.500000 0.706519 T T T
0.859220 0.500000 0.755719 T T T
0.859220 0.500000 0.804919 T T T
0.859220 0.500000 0.854119 T T T
0.859220 0.500000 0.903319 T T T
0.859220 0.500000 0.952519 T T T
0.859220 0.500000 0.001719 T T T
0.984220 0.500000 0.681919 T T T
0.984220 0.500000 0.731119 T T T
0.984220 0.500000 0.780319 T T T
0.984220 0.500000 0.829519 T T T
0.984220 0.500000 0.878719 T T T
0.984220 0.500000 0.927919 T T T
0.984220 0.500000 0.977119 T T T
0.942560 0.500000 0.706519 T T T
0.942560 0.500000 0.755719 T T T
0.942560 0.500000 0.804919 T T T
0.942560 0.500000 0.854119 T T T
0.942560 0.500000 0.903319 T T T
0.942560 0.500000 0.952519 T T T
0.942560 0.500000 0.001719 T T T
0.067560 0.500000 0.681919 T T T
0.067560 0.500000 0.731119 T T T
0.067560 0.500000 0.780319 T T T
0.067560 0.500000 0.829519 T T T
0.067560 0.500000 0.878719 T T T
0.067560 0.500000 0.927919 T T T
0.067560 0.500000 0.977119 T T T
0.997670 0.500000 0.171310 F F F
0.997670 0.500000 0.256530 F F F
0.997670 0.500000 0.341750 F F F
0.997670 0.500000 0.426960 F F F
0.997670 0.500000 0.199720 F F F
0.997670 0.500000 0.284930 F F F
0.997670 0.500000 0.370150 F F F
0.997670 0.500000 0.455370 F F F
0.926240 0.500000 0.213920 F F F
0.926240 0.500000 0.299140 F F F
0.926240 0.500000 0.384350 F F F
0.926240 0.500000 0.469570 F F F
0.926240 0.500000 0.157110 F F F
0.926240 0.500000 0.242330 F F F
0.926240 0.500000 0.327540 F F F
0.926240 0.500000 0.412760 F F F
0.854810 0.500000 0.171310 F F F
0.854810 0.500000 0.256530 F F F
0.854810 0.500000 0.341750 F F F
0.854810 0.500000 0.426960 F F F
0.783380 0.500000 0.213920 F F F
0.783380 0.500000 0.299140 F F F
0.783380 0.500000 0.384350 F F F
0.783380 0.500000 0.469570 F F F
0.854810 0.500000 0.199720 F F F
0.854810 0.500000 0.284930 F F F
0.854810 0.500000 0.370150 F F F
0.854810 0.500000 0.455370 F F F
0.783380 0.500000 0.157110 F F F
0.783380 0.500000 0.242330 F F F
0.783380 0.500000 0.327540 F F F
0.783380 0.500000 0.412760 F F F
0.711960 0.500000 0.171310 F F F
0.711960 0.500000 0.256530 F F F
0.711960 0.500000 0.341750 F F F
0.711960 0.500000 0.426960 F F F
0.640530 0.500000 0.213920 F F F
0.640530 0.500000 0.299140 F F F
0.640530 0.500000 0.384350 F F F
0.640530 0.500000 0.469570 F F F
0.711960 0.500000 0.199720 F F F
0.711960 0.500000 0.284930 F F F
0.711960 0.500000 0.370150 F F F
0.711960 0.500000 0.455370 F F F
0.640530 0.500000 0.157110 F F F
0.640530 0.500000 0.242330 F F F
0.640530 0.500000 0.327540 F F F
0.640530 0.500000 0.412760 F F F
0.569100 0.500000 0.171310 F F F
0.569100 0.500000 0.256530 F F F
0.569100 0.500000 0.341750 F F F
0.569100 0.500000 0.426960 F F F
0.497670 0.500000 0.213920 F F F
0.497670 0.500000 0.299140 F F F
0.497670 0.500000 0.384350 F F F
0.497670 0.500000 0.469570 F F F
0.569100 0.500000 0.199720 F F F
0.569100 0.500000 0.284930 F F F
0.569100 0.500000 0.370150 F F F
0.569100 0.500000 0.455370 F F F
0.497670 0.500000 0.157110 F F F
0.497670 0.500000 0.242330 F F F
0.497670 0.500000 0.327540 F F F
0.497670 0.500000 0.412760 F F F
0.426240 0.500000 0.171310 F F F
0.426240 0.500000 0.256530 F F F
0.426240 0.500000 0.341750 F F F
0.426240 0.500000 0.426960 F F F
0.354810 0.500000 0.213920 F F F
0.354810 0.500000 0.299140 F F F
0.354810 0.500000 0.384350 F F F
0.354810 0.500000 0.469570 F F F
0.426240 0.500000 0.199720 F F F
0.426240 0.500000 0.284930 F F F
0.426240 0.500000 0.370150 F F F
0.426240 0.500000 0.455370 F F F
0.354810 0.500000 0.157110 F F F
0.354810 0.500000 0.242330 F F F
0.354810 0.500000 0.327540 F F F
0.354810 0.500000 0.412760 F F F
0.283380 0.500000 0.171310 F F F
0.283380 0.500000 0.256530 F F F
0.283380 0.500000 0.341750 F F F
0.283380 0.500000 0.426960 F F F
0.211960 0.500000 0.213920 F F F
0.211960 0.500000 0.299140 F F F
0.211960 0.500000 0.384350 F F F
0.211960 0.500000 0.469570 F F F
0.283380 0.500000 0.199720 F F F
0.283380 0.500000 0.284930 F F F
0.283380 0.500000 0.370150 F F F
0.283380 0.500000 0.455370 F F F
0.211960 0.500000 0.157110 F F F
0.211960 0.500000 0.242330 F F F
0.211960 0.500000 0.327540 F F F
0.211960 0.500000 0.412760 F F F
0.140530 0.500000 0.171310 F F F
0.140530 0.500000 0.256530 F F F
0.140530 0.500000 0.341750 F F F
0.140530 0.500000 0.426960 F F F
0.069100 0.500000 0.213920 F F F
0.069100 0.500000 0.299140 F F F
0.069100 0.500000 0.384350 F F F
0.069100 0.500000 0.469570 F F F
0.140530 0.500000 0.199720 F F F
0.140530 0.500000 0.284930 F F F
0.140530 0.500000 0.370150 F F F
0.140530 0.500000 0.455370 F F F
0.069100 0.500000 0.157110 F F F
0.069100 0.500000 0.242330 F F F
0.069100 0.500000 0.327540 F F F
0.069100 0.500000 0.412760 F F F
0.529831 0.127953 0.480676 T T T
0.257094 0.527058 0.515286 T T T
0.330262 0.733050 0.504273 T T T
0.091979 0.894447 0.520127 T T T
0.339384 0.904724 0.504775 T T T
0.730382 0.091113 0.509085 T T T
0.576120 0.100118 0.504263 T T T
0.650079 0.542077 0.494987 T T T
0.664230 0.606520 0.517216 T T T
0.696439 0.847911 0.483606 T T T
0.869723 0.905307 0.502624 T T T
0.025717 0.000504 0.583710 T T T
0.083813 0.056105 0.598970 T T T
0.268606 0.202733 0.529956 T T T
0.023961 0.634762 0.586447 T T T
0.096447 0.782456 0.562330 T T T
0.402215 0.319492 0.554995 T T T
0.468064 0.362512 0.574272 T T T
0.729908 0.441063 0.522854 T T T
0.977889 0.565348 0.607016 T T T
0.567360 0.663608 0.551377 T T T
0.592878 0.799221 0.575935 T T T
0.224347 0.031533 0.676016 T T T
0.294614 0.055198 0.642531 T T T
0.336585 0.141609 0.666093 T T T
0.156405 0.927597 0.635378 T T T
0.273986 0.960456 0.624122 T T T
0.867492 0.027583 0.676825 T T T
0.828798 0.250809 0.614074 T T T
0.982536 0.274872 0.612946 T T T
0.666925 0.565419 0.662177 T T T
0.797499 0.786896 0.633869 T T T
0.382565 0.845302 0.670903 T T T
0.109220 0.500000 0.706519 T T T
0.109220 0.500000 0.755719 T T T
0.109220 0.500000 0.804919 T T T
0.109220 0.500000 0.854119 T T T
0.109220 0.500000 0.903319 T T T
0.109220 0.500000 0.952519 T T T
0.109220 0.500000 0.001719 T T T
0.234220 0.500000 0.681919 T T T
0.234220 0.500000 0.731119 T T T
0.234220 0.500000 0.780319 T T T
0.234220 0.500000 0.829519 T T T
0.234220 0.500000 0.878719 T T T
0.234220 0.500000 0.927919 T T T
0.234220 0.500000 0.977119 T T T
0.192560 0.500000 0.706519 T T T
0.192560 0.500000 0.755719 T T T
0.192560 0.500000 0.804919 T T T
0.192560 0.500000 0.854119 T T T
0.192560 0.500000 0.903319 T T T
0.192560 0.500000 0.952519 T T T
0.192560 0.500000 0.001719 T T T
0.317560 0.500000 0.681919 T T T
0.317560 0.500000 0.731119 T T T
0.317560 0.500000 0.780319 T T T
0.317560 0.500000 0.829519 T T T
0.317560 0.500000 0.878719 T T T
0.317560 0.500000 0.927919 T T T
0.317560 0.500000 0.977119 T T T
0.359220 0.500000 0.706519 T T T
0.359220 0.500000 0.755719 T T T
0.075940 0.500000 0.021469 T T T
0.225830 0.500000 0.021469 T T T
0.326070 0.500000 0.021489 T T T
0.475830 0.500000 0.021469 T T T
0.576070 0.500000 0.021489 T T T
0.725830 0.500000 0.021469 T T T
0.826070 0.500000 0.021489 T T T
0.975830 0.500000 0.021469 T T T
0.926100 0.500000 0.134310 F F F
0.783520 0.500000 0.134310 F F F
0.640670 0.500000 0.134310 F F F
0.497810 0.500000 0.134310 F F F
0.354950 0.500000 0.134310 F F F
0.212100 0.500000 0.134310 F F F
0.068960 0.500000 0.134310 F F F
0.468239 0.105607 0.475229 T T T
0.535704 0.217521 0.481155 T T T
0.370755 0.945100 0.526331 T T T
0.661159 0.979456 0.483042 T T T
0.757846 0.083662 0.528952 T T T
0.877980 0.128994 0.478154 T T T
0.703223 0.309714 0.491004 T T T
0.963628 0.578963 0.485526 T T T
0.779245 0.740369 0.494466 T T T
0.142205 0.012427 0.557342 T T T
0.366144 0.425124 0.584642 T T T
0.041224 0.511767 0.576708 T T T
0.144224 0.894981 0.531468 T T T
0.375105 0.415581 0.564898 T T T
0.924078 0.568063 0.593291 T T T
0.737631 0.628112 0.538737 T T T
0.575148 0.695612 0.576412 T T T
0.583664 0.942218 0.570518 T T T
0.268425 0.119822 0.676459 T T T
0.130687 0.441259 0.659235 T T T
0.108630 0.530168 0.617770 T T T
0.307689 0.629259 0.645395 T T T
0.520666 0.667279 0.657048 T T T
0.574464 0.302946 0.629056 T T T
0.559621 0.502166 0.617035 T T T
0.597127 0.656685 0.607780 T T T
0.734925 0.665468 0.651441 T T T
0.755366 0.931061 0.591600 T T T
