search
1.0
17.131700 0.000000 0.000000
0.000000 10.000000 0.000000
0.000000 0.000000 50.000000
C H 
227 73 
Selective dynamics
Direct
0.430006 0.500000 0.784564 T T T
0.430006 0.500000 0.833764 T T T
0.430006 0.500000 0.882964 T T T
0.430006 0.500000 0.932164 T T T
0.430006 0.500000 0.981364 T T T
0.555006 0.500000 0.661564 T T T
0.555006 0.500000 0.710764 T T T
0.555006 0.500000 0.759964 T T T
0.555006 0.500000 0.809164 T T T
0.555006 0.500000 0.858364 T T T
0.555006 0.500000 0.907564 T T T
0.555006 0.500000 0.956764 T T T
0.513346 0.500000 0.686164 T T T
0.513346 0.500000 0.735364 T T T
0.513346 0.500000 0.784564 T T T
0.513346 0.500000 0.833764 T T T
0.513346 0.500000 0.882964 T T T
0.513346 0.500000 0.932164 T T T
0.513346 0.500000 0.981364 T T T
0.638346 0.500000 0.661564 T T T
0.638346 0.500000 0.710764 T T T
0.638346 0.500000 0.759964 T T T
0.638346 0.500000 0.809164 T T T
0.638346 0.500000 0.858364 T T T
0.638346 0.500000 0.907564 T T T
0.638346 0.500000 0.956764 T T T
0.680006 0.500000 0.686164 T T T
0.680006 0.500000 0.735364 T T T
0.680006 0.500000 0.784564 T T T
0.680006 0.500000 0.833764 T T T
0.680006 0.500000 0.882964 T T T
0.680006 0.500000 0.932164 T T T
0.680006 0.500000 0.981364 T T T
0.805006 0.500000 0.661564 T T T
0.805006 0.500000 0.710764 T T T
0.805006 0.500000 0.759964 T T T
0.805006 0.500000 0.809164 T T T
0.805006 0.500000 0.858364 T T T
0.805006 0.500000 0.907564 T T T
0.805006 0.500000 0.956764 T T T
0.763346 0.500000 0.686164 T T T
0.763346 0.500000 0.735364 T T T
0.763346 0.500000 0.784564 T T T
0.763346 0.500000 0.833764 T T T
0.763346 0.500000 0.882964 T T T
0.763346 0.500000 0.932164 T T T
0.763346 0.500000 0.981364 T T T
0.888346 0.500000 0.661564 T T T
0.888346 0.500000 0.710764 T T T
0.888346 0.500000 0.759964 T T T
0.888346 0.500000 0.809164 T T T
0.888346 0.500000 0.858364 T T T
0.888346 0.500000 0.907564 T T T
0.888346 0.500000 0.956764 T T T
0.930006 0.500000 0.686164 T T T
0.930006 0.500000 0.735364 T T T
0.930006 0.500000 0.784564 T T T
0.930006 0.500000 0.833764 T T T
0.930006 0.500000 0.882964 T T T
0.930006 0.500000 0.932164 T T T
0.930006 0.500000 0.981364 T T T
0.055006 0.500000 0.661564 T T T
0.055006 0.500000 0.710764 T T T
0.055006 0.500000 0.759964 T T T
0.055006 0.500000 0.809164 T T T
0.055006 0.500000 0.858364 T T T
0.055006 0.500000 0.907564 T T T
0.055006 0.500000 0.956764 T T T
0.013346 0.500000 0.686164 T T T
0.013346 0.500000 0.735364 T T T
0.013346 0.500000 0.784564 T T T
0.013346 0.500000 0.833764 T T T
0.013346 0.500000 0.882964 T T T
0.013346 0.500000 0.932164 T T T
0.013346 0.500000 0.981364 T T T
0.138346 0.500000 0.661564 T T T
0.138346 0.500000 0.710764 T T T
0.138346 0.500000 0.759964 T T T
0.138346 0.500000 0.809164 T T T
0.138346 0.500000 0.858364 T T T
0.138346 0.500000 0.907564 T T T
0.138346 0.500000 0.956764 T T T
0.997670 0.500000 0.171310 F F F
0.997670 0.500000 0.256530 F F F
0.997670 0.500000 0.341750 F F F
0.997670 0.500000 0.426960 F F F
0.997670 0.500000 0.199720 F F F
0.997670 0.500000 0.284930 F F F
0.997670 0.500000 0.370150 F F F
0.997670 0.500000 0.455370 F F F
0.926240 0.500000 0.213920 F F F
0.926240 0.500000 0.299140 F F F
0.926240 0.500000 0.384350 F F F
0.926240 0.500000 0.469570 F F F
0.926240 0.500000 0.157110 F F F
0.926240 0.500000 0.242330 F F F
0.926240 0.500000 0.327540 F F F
0.926240 0.500000 0.412760 F F F
0.854810 0.500000 0.171310 F F F
0.854810 0.500000 0.256530 F F F
0.854810 0.500000 0.341750 F F F
0.854810 0.500000 0.426960 F F F
0.783380 0.500000 0.213920 F F F
0.783380 0.500000 0.299140 F F F
0.783380 0.500000 0.384350 F F F
0.783380 0.500000 0.469570 F F F
0.854810 0.500000 0.199720 F F F
0.854810 0.500000 0.284930 F F F
0.854810 0.500000 0.370150 F F F
0.854810 0.500000 0.455370 F F F
0.783380 0.500000 0.157110 F F F
0.783380 0.500000 0.242330 F F F
0.783380 0.500000 0.327540 F F F
0.783380 0.500000 0.412760 F F F
0.711960 0.500000 0.171310 F F F
0.711960 0.500000 0.256530 F F F
0.711960 0.500000 0.341750 F F F
0.711960 0.500000 0.426960 F F F
0.640530 0.500000 0.213920 F F F
0.640530 0.500000 0.299140 F F F
0.640530 0.500000 0.384350 F F F
0.640530 0.500000 0.469570 F F F
0.711960 0.500000 0.199720 F F F
0.711960 0.500000 0.284930 F F F
0.711960 0.500000 0.370150 F F F
0.711960 0.500000 0.455370 F F F
0.640530 0.500000 0.157110 F F F
0.640530 0.500000 0.242330 F F F
0.640530 0.500000 0.327540 F F F
0.640530 0.500000 0.412760 F F F
0.569100 0.500000 0.171310 F F F
0.569100 0.500000 0.256530 F F F
0.569100 0.500000 0.341750 F F F
0.569100 0.500000 0.426960 F F F
0.497670 0.500000 0.213920 F F F
0.497670 0.500000 0.299140 F F F
0.497670 0.500000 0.384350 F F F
0.497670 0.500000 0.469570 F F F
0.569100 0.500000 0.199720 F F F
0.569100 0.500000 0.284930 F F F
0.569100 0.500000 0.370150 F F F
0.569100 0.500000 0.455370 F F F
0.497670 0.500000 0.157110 F F F
0.497670 0.500000 0.242330 F F F
0.497670 0.500000 0.327540 F F F
0.497670 0.500000 0.412760 F F F
0.426240 0.500000 0.171310 F F F
0.426240 0.500000 0.256530 F F F
0.426240 0.500000 0.341750 F F F
0.426240 0.500000 0.426960 F F F
0.354810 0.500000 0.213920 F F F
0.354810 0.500000 0.299140 F F F
0.354810 0.500000 0.384350 F F F
0.354810 0.500000 0.469570 F F F
0.426240 0.500000 0.199720 F F F
0.426240 0.500000 0.284930 F F F
0.426240 0.500000 0.370150 F F F
0.426240 0.500000 0.455370 F F F
0.354810 0.500000 0.157110 F F F
0.354810 0.500000 0.242330 F F F
0.354810 0.500000 0.327540 F F F
0.354810 0.500000 0.412760 F F F
0.283380 0.500000 0.171310 F F F
0.283380 0.500000 0.256530 F F F
0.283380 0.500000 0.341750 F F F
0.283380 0.500000 0.426960 F F F
0.211960 0.500000 0.213920 F F F
0.211960 0.500000 0.299140 F F F
0.211960 0.500000 0.384350 F F F
0.211960 0.500000 0.469570 F F F
0.283380 0.500000 0.199720 F F F
0.283380 0.500000 0.284930 F F F
0.283380 0.500000 0.370150 F F F
0.283380 0.500000 0.455370 F F F
0.211960 0.500000 0.157110 F F F
0.211960 0.500000 0.242330 F F F
0.211960 0.500000 0.327540 F F F
0.211960 0.500000 0.412760 F F F
0.140530 0.500000 0.171310 F F F
0.140530 0.500000 0.256530 F F F
0.140530 0.500000 0.341750 F F F
0.140530 0.500000 0.426960 F F F
0.069100 0.500000 0.213920 F F F
0.069100 0.500000 0.299140 F F F
0.069100 0.500000 0.384350 F F F
0.069100 0.500000 0.469570 F F F
0.140530 0.500000 0.199720 F F F
0.140530 0.500000 0.284930 F F F
0.140530 0.500000 0.370150 F F F
0.140530 0.500000 0.455370 F F F
0.069100 0.500000 0.157110 F F F
0.069100 0.500000 0.242330 F F F
0.069100 0.500000 0.327540 F F F
0.069100 0.500000 0.412760 F F F
0.082630 0.350822 0.499505 T T T
0.178877 0.633812 0.507459 T T T
0.159895 0.972376 0.521657 T T T
0.976686 0.229609 0.526198 T T T
0.323998 0.095121 0.470321 T T T
0.593203 0.156987 0.518110 T T T
0.614378 0.272210 0.505280 T T T
0.400644 0.412655 0.537973 T T T
0.017229 0.231340 0.501407 T T T
0.517709 0.775640 0.518106 T T T
0.003600 0.827306 0.492555 T T T
0.306375 0.770418 0.499366 T T T
0.522788 0.881405 0.498563 T T T
0.468364 0.215990 0.590580 T T T
0.477728 0.719697 0.534747 T T T
0.083599 0.997622 0.520701 T T T
0.887446 0.053173 0.572729 T T T
0.393267 0.385158 0.563215 T T T
0.004715 0.588920 0.543970 T T T
0.704900 0.695025 0.593317 T T T
0.314039 0.618311 0.535540 T T T
0.051782 0.964644 0.612432 T T T
0.209443 0.211888 0.659636 T T T
0.504554 0.442459 0.640435 T T T
0.123478 0.651008 0.591706 T T T
0.339322 0.524269 0.645000 T T T
0.270530 0.945386 0.592563 T T T
0.653403 0.848875 0.655096 T T T
0.557270 0.325124 0.635917 T T T
0.865031 0.533417 0.595097 T T T
0.952223 0.732171 0.660003 T T T
0.133956 0.776031 0.627655 T T T
0.768774 0.043431 0.636362 T T T
0.180006 0.500000 0.686164 T T T
0.180006 0.500000 0.735364 T T T
0.180006 0.500000 0.784564 T T T
0.180006 0.500000 0.833764 T T T
0.180006 0.500000 0.882964 T T T
0.180006 0.500000 0.932164 T T T
0.180006 0.500000 0.981364 T T T
0.305006 0.500000 0.661564 T T T
0.305006 0.500000 0.710764 T T T
0.305006 0.500000 0.759964 T T T
0.305006 0.500000 0.809164 T T T
0.305006 0.500000 0.858364 T T T
0.305006 0.500000 0.907564 T T T
0.305006 0.500000 0.956764 T T T
0.263346 0.500000 0.686164 T T T
0.263346 0.500000 0.735364 T T T
0.263346 0.500000 0.784564 T T T
0.263346 0.500000 0.833764 T T T
0.263346 0.500000 0.882964 T T T
0.263346 0.500000 0.932164 T T T
0.263346 0.500000 0.981364 T T T
0.388346 0.500000 0.661564 T T T
0.388346 0.500000 0.710764 T T T
0.388346 0.500000 0.759964 T T T
0.388346 0.500000 0.809164 T T T
0.388346 0.500000 0.858364 T T T
0.388346 0.500000 0.907564 T T T
0.388346 0.500000 0.956764 T T T
0.430006 0.500000 0.686164 T T T
0.430006 0.500000 0.735364 T T T
0.146726 0.500000 0.001114 T T T
0.296616 0.500000 0.001114 T T T
0.396856 0.500000 0.001134 T T T
0.546616 0.500000 0.001114 T T T
0.646856 0.500000 0.001134 T T T
0.796616 0.500000 0.001114 T T T
0.896856 0.500000 0.001134 T T T
0.046616 0.500000 0.001114 T T T
0.926100 0.500000 0.134310 F F F
0.783520 0.500000 0.134310 F F F
0.640670 0.500000 0.134310 F F F
0.497810 0.500000 0.134310 F F F
0.354950 0.500000 0.134310 F F F
0.212100 0.500000 0.134310 F F F
0.068960 0.500000 0.134310 F F F
0.165752 0.942617 0.468285 T T T
0.477087 0.428021 0.508539 T T T
0.510069 0.603166 0.477129 T T T
0.540953 0.964421 0.515305 T T T
0.682080 0.114828 0.469998 T T T
0.778824 0.406201 0.477185 T T T
0.575581 0.908901 0.468132 T T T
0.580871 0.049811 0.502502 T T T
0.978078 0.232789 0.483766 T T T
0.586871 0.823626 0.494312 T T T
0.097124 0.025995 0.486214 T T T
0.349888 0.422330 0.526327 T T T
0.273404 0.854786 0.493016 T T T
0.581471 0.041317 0.523295 T T T
0.737974 0.314045 0.521966 T T T
0.090930 0.570732 0.523530 T T T
0.693851 0.370888 0.494364 T T T
0.922007 0.844467 0.525259 T T T
0.254982 0.139207 0.652163 T T T
0.337051 0.594730 0.556685 T T T
0.473251 0.611600 0.545593 T T T
0.396828 0.695413 0.585731 T T T
0.221890 0.878644 0.581889 T T T
0.340024 0.727226 0.540858 T T T
0.676653 0.848887 0.633332 T T T
0.985167 0.667478 0.621790 T T T
0.991030 0.812249 0.560133 T T T
0.737037 0.890804 0.546253 T T T
