search
1.0
17.131700 0.000000 0.000000
0.000000 10.000000 0.000000
0.000000 0.000000 50.000000
C H 
227 73 
Selective dynamics
Direct
0.384101 0.500000 0.784664 T T T
0.384101 0.500000 0.833864 T T T
0.384101 0.500000 0.883064 T T T
0.384101 0.500000 0.932264 T T T
0.384101 0.500000 0.981464 T T T
0.509101 0.500000 0.661664 T T T
0.509101 0.500000 0.710864 T T T
0.509101 0.500000 0.760064 T T T
0.509101 0.500000 0.809264 T T T
0.509101 0.500000 0.858464 T T T
0.509101 0.500000 0.907664 T T T
0.509101 0.500000 0.956864 T T T
0.467441 0.500000 0.686264 T T T
0.467441 0.500000 0.735464 T T T
0.467441 0.500000 0.784664 T T T
0.467441 0.500000 0.833864 T T T
0.467441 0.500000 0.883064 T T T
0.467441 0.500000 0.932264 T T T
0.467441 0.500000 0.981464 T T T
0.592441 0.500000 0.661664 T T T
0.592441 0.500000 0.710864 T T T
0.592441 0.500000 0.760064 T T T
0.592441 0.500000 0.809264 T T T
0.592441 0.500000 0.858464 T T T
0.592441 0.500000 0.907664 T T T
0.592441 0.500000 0.956864 T T T
0.634101 0.500000 0.686264 T T T
0.634101 0.500000 0.735464 T T T
0.634101 0.500000 0.784664 T T T
0.634101 0.500000 0.833864 T T T
0.634101 0.500000 0.883064 T T T
0.634101 0.500000 0.932264 T T T
0.634101 0.500000 0.981464 T T T
0.759101 0.500000 0.661664 T T T
0.759101 0.500000 0.710864 T T T
0.759101 0.500000 0.760064 T T T
0.759101 0.500000 0.809264 T T T
0.759101 0.500000 0.858464 T T T
0.759101 0.500000 0.907664 T T T
0.759101 0.500000 0.956864 T T T
0.717441 0.500000 0.686264 T T T
0.717441 0.500000 0.735464 T T T
0.717441 0.500000 0.784664 T T T
0.717441 0.500000 0.833864 T T T
0.717441 0.500000 0.883064 T T T
0.717441 0.500000 0.932264 T T T
0.717441 0.500000 0.981464 T T T
0.842441 0.500000 0.661664 T T T
0.842441 0.500000 0.710864 T T T
0.842441 0.500000 0.760064 T T T
0.842441 0.500000 0.809264 T T T
0.842441 0.500000 0.858464 T T T
0.842441 0.500000 0.907664 T T T
0.842441 0.500000 0.956864 T T T
0.884101 0.500000 0.686264 T T T
0.884101 0.500000 0.735464 T T T
0.884101 0.500000 0.784664 T T T
0.884101 0.500000 0.833864 T T T
0.884101 0.500000 0.883064 T T T
0.884101 0.500000 0.932264 T T T
0.884101 0.500000 0.981464 T T T
0.009101 0.500000 0.661664 T T T
0.009101 0.500000 0.710864 T T T
0.009101 0.500000 0.760064 T T T
0.009101 0.500000 0.809264 T T T
0.009101 0.500000 0.858464 T T T
0.009101 0.500000 0.907664 T T T
0.009101 0.500000 0.956864 T T T
0.967441 0.500000 0.686264 T T T
0.967441 0.500000 0.735464 T T T
0.967441 0.500000 0.784664 T T T
0.967441 0.500000 0.833864 T T T
0.967441 0.500000 0.883064 T T T
0.967441 0.500000 0.932264 T T T
0.967441 0.500000 0.981464 T T T
0.092441 0.500000 0.661664 T T T
0.092441 0.500000 0.710864 T T T
0.092441 0.500000 0.760064 T T T
0.092441 0.500000 0.809264 T T T
0.092441 0.500000 0.858464 T T T
0.092441 0.500000 0.907664 T T T
0.092441 0.500000 0.956864 T T T
0.997670 0.500000 0.171310 F F F
0.997670 0.500000 0.256530 F F F
0.997670 0.500000 0.341750 F F F
0.997670 0.500000 0.426960 F F F
0.997670 0.500000 0.199720 F F F
0.997670 0.500000 0.284930 F F F
0.997670 0.500000 0.370150 F F F
0.997670 0.500000 0.455370 F F F
0.926240 0.500000 0.213920 F F F
0.926240 0.500000 0.299140 F F F
0.926240 0.500000 0.384350 F F F
0.926240 0.500000 0.469570 F F F
0.926240 0.500000 0.157110 F F F
0.926240 0.500000 0.242330 F F F
0.926240 0.500000 0.327540 F F F
0.926240 0.500000 0.412760 F F F
0.854810 0.500000 0.171310 F F F
0.854810 0.500000 0.256530 F F F
0.854810 0.500000 0.341750 F F F
0.854810 0.500000 0.426960 F F F
0.783380 0.500000 0.213920 F F F
0.783380 0.500000 0.299140 F F F
0.783380 0.500000 0.384350 F F F
0.783380 0.500000 0.469570 F F F
0.854810 0.500000 0.199720 F F F
0.854810 0.500000 0.284930 F F F
0.854810 0.500000 0.370150 F F F
0.854810 0.500000 0.455370 F F F
0.783380 0.500000 0.157110 F F F
0.783380 0.500000 0.242330 F F F
0.783380 0.500000 0.327540 F F F
0.783380 0.500000 0.412760 F F F
0.711960 0.500000 0.171310 F F F
0.711960 0.500000 0.256530 F F F
0.711960 0.500000 0.341750 F F F
0.711960 0.500000 0.426960 F F F
0.640530 0.500000 0.213920 F F F
0.640530 0.500000 0.299140 F F F
0.640530 0.500000 0.384350 F F F
0.640530 0.500000 0.469570 F F F
0.711960 0.500000 0.199720 F F F
0.711960 0.500000 0.284930 F F F
0.711960 0.500000 0.370150 F F F
0.711960 0.500000 0.455370 F F F
0.640530 0.500000 0.157110 F F F
0.640530 0.500000 0.242330 F F F
0.640530 0.500000 0.327540 F F F
0.640530 0.500000 0.412760 F F F
0.569100 0.500000 0.171310 F F F
0.569100 0.500000 0.256530 F F F
0.569100 0.500000 0.341750 F F F
0.569100 0.500000 0.426960 F F F
0.497670 0.500000 0.213920 F F F
0.497670 0.500000 0.299140 F F F
0.497670 0.500000 0.384350 F F F
0.497670 0.500000 0.469570 F F F
0.569100 0.500000 0.199720 F F F
0.569100 0.500000 0.284930 F F F
0.569100 0.500000 0.370150 F F F
0.569100 0.500000 0.455370 F F F
0.497670 0.500000 0.157110 F F F
0.497670 0.500000 0.242330 F F F
0.497670 0.500000 0.327540 F F F
0.497670 0.500000 0.412760 F F F
0.426240 0.500000 0.171310 F F F
0.426240 0.500000 0.256530 F F F
0.426240 0.500000 0.341750 F F F
0.426240 0.500000 0.426960 F F F
0.354810 0.500000 0.213920 F F F
0.354810 0.500000 0.299140 F F F
0.354810 0.500000 0.384350 F F F
0.354810 0.500000 0.469570 F F F
0.426240 0.500000 0.199720 F F F
0.426240 0.500000 0.284930 F F F
0.426240 0.500000 0.370150 F F F
0.426240 0.500000 0.455370 F F F
0.354810 0.500000 0.157110 F F F
0.354810 0.500000 0.242330 F F F
0.354810 0.500000 0.327540 F F F
0.354810 0.500000 0.412760 F F F
0.283380 0.500000 0.171310 F F F
0.283380 0.500000 0.256530 F F F
0.283380 0.500000 0.341750 F F F
0.283380 0.500000 0.426960 F F F
0.211960 0.500000 0.213920 F F F
0.211960 0.500000 0.299140 F F F
0.211960 0.500000 0.384350 F F F
0.211960 0.500000 0.469570 F F F
0.283380 0.500000 0.199720 F F F
0.283380 0.500000 0.284930 F F F
0.283380 0.500000 0.370150 F F F
0.283380 0.500000 0.455370 F F F
0.211960 0.500000 0.157110 F F F
0.211960 0.500000 0.242330 F F F
0.211960 0.500000 0.327540 F F F
0.211960 0.500000 0.412760 F F F
0.140530 0.500000 0.171310 F F F
0.140530 0.500000 0.256530 F F F
0.140530 0.500000 0.341750 F F F
0.140530 0.500000 0.426960 F F F
0.069100 0.500000 0.213920 F F F
0.069100 0.500000 0.299140 F F F
0.069100 0.500000 0.384350 F F F
0.069100 0.500000 0.469570 F F F
0.140530 0.500000 0.199720 F F F
0.140530 0.500000 0.284930 F F F
0.140530 0.500000 0.370150 F F F
0.140530 0.500000 0.455370 F F F
0.069100 0.500000 0.157110 F F F
0.069100 0.500000 0.242330 F F F
0.069100 0.500000 0.327540 F F F
0.069100 0.500000 0.412760 F F F
0.405980 0.679213 0.470524 T T T
0.350162 0.865666 0.481448 T T T
0.949729 0.700605 0.471847 T T T
0.764824 0.755609 0.496438 T T T
0.568097 0.840118 0.485921 T T T
0.456339 0.771166 0.468069 T T T
0.975448 0.723883 0.496398 T T T
0.654255 0.103160 0.501279 T T T
0.712500 0.547502 0.487839 T T T
0.534424 0.782471 0.464988 T T T
0.112162 0.042328 0.470002 T T T
0.486762 0.507263 0.589152 T T T
0.804186 0.328609 0.582537 T T T
0.029216 0.563690 0.525600 T T T
0.669152 0.609837 0.558277 T T T
0.741016 0.897546 0.576173 T T T
0.931151 0.110424 0.548815 T T T
0.630869 0.700446 0.543106 T T T
0.123209 0.017372 0.548779 T T T
0.124486 0.092359 0.570635 T T T
0.124529 0.976389 0.508864 T T T
0.452985 0.065002 0.509229 T T T
0.625886 0.915016 0.630013 T T T
0.128756 0.376143 0.650506 T T T
0.479441 0.420609 0.637858 T T T
0.064552 0.280021 0.600934 T T T
0.537455 0.088235 0.660013 T T T
0.851044 0.511687 0.571161 T T T
0.456633 0.522868 0.614482 T T T
0.785120 0.407853 0.606037 T T T
0.611837 0.178872 0.571122 T T T
0.718266 0.465079 0.617746 T T T
0.903633 0.848614 0.629628 T T T
0.134101 0.500000 0.686264 T T T
0.134101 0.500000 0.735464 T T T
0.134101 0.500000 0.784664 T T T
0.134101 0.500000 0.833864 T T T
0.134101 0.500000 0.883064 T T T
0.134101 0.500000 0.932264 T T T
0.134101 0.500000 0.981464 T T T
0.259101 0.500000 0.661664 T T T
0.259101 0.500000 0.710864 T T T
0.259101 0.500000 0.760064 T T T
0.259101 0.500000 0.809264 T T T
0.259101 0.500000 0.858464 T T T
0.259101 0.500000 0.907664 T T T
0.259101 0.500000 0.956864 T T T
0.217441 0.500000 0.686264 T T T
0.217441 0.500000 0.735464 T T T
0.217441 0.500000 0.784664 T T T
0.217441 0.500000 0.833864 T T T
0.217441 0.500000 0.883064 T T T
0.217441 0.500000 0.932264 T T T
0.217441 0.500000 0.981464 T T T
0.342441 0.500000 0.661664 T T T
0.342441 0.500000 0.710864 T T T
0.342441 0.500000 0.760064 T T T
0.342441 0.500000 0.809264 T T T
0.342441 0.500000 0.858464 T T T
0.342441 0.500000 0.907664 T T T
0.342441 0.500000 0.956864 T T T
0.384101 0.500000 0.686264 T T T
0.384101 0.500000 0.735464 T T T
0.100821 0.500000 0.001214 T T T
0.250711 0.500000 0.001214 T T T
0.350951 0.500000 0.001234 T T T
0.500711 0.500000 0.001214 T T T
0.600951 0.500000 0.001234 T T T
0.750711 0.500000 0.001214 T T T
0.850951 0.500000 0.001234 T T T
0.000711 0.500000 0.001214 T T T
0.926100 0.500000 0.134310 F F F
0.783520 0.500000 0.134310 F F F
0.640670 0.500000 0.134310 F F F
0.497810 0.500000 0.134310 F F F
0.354950 0.500000 0.134310 F F F
0.212100 0.500000 0.134310 F F F
0.068960 0.500000 0.134310 F F F
0.487838 0.301171 0.525452 T T T
0.475653 0.248498 0.472353 T T T
0.949950 0.734800 0.541708 T T T
0.626542 0.703966 0.490911 T T T
0.982156 0.099746 0.487525 T T T
0.884596 0.877690 0.506857 T T T
0.539404 0.081639 0.498868 T T T
0.833292 0.194321 0.469999 T T T
0.870194 0.529401 0.527512 T T T
0.856603 0.454698 0.550375 T T T
0.509440 0.345189 0.538692 T T T
0.839693 0.681470 0.520083 T T T
0.770921 0.746869 0.562786 T T T
0.293712 0.224507 0.533081 T T T
0.002597 0.412209 0.507947 T T T
0.320202 0.643971 0.496882 T T T
0.311754 0.793302 0.560373 T T T
0.116812 0.935020 0.591879 T T T
0.986259 0.486887 0.642502 T T T
0.199669 0.818291 0.601526 T T T
0.762061 0.856527 0.644168 T T T
0.327656 0.065592 0.576123 T T T
0.203187 0.140366 0.592884 T T T
0.496813 0.321859 0.626915 T T T
0.907646 0.522777 0.629775 T T T
0.925526 0.878645 0.571627 T T T
0.546730 0.781765 0.602619 T T T
0.476484 0.591220 0.628100 T T T
