search
1.0
17.131700 0.000000 0.000000
0.000000 10.000000 0.000000
0.000000 0.000000 50.000000
C H 
227 73 
Selective dynamics
Direct
0.502731 0.500000 0.784666 T T T
0.502731 0.500000 0.833866 T T T
0.502731 0.500000 0.883066 T T T
0.502731 0.500000 0.932266 T T T
0.502731 0.500000 0.981466 T T T
0.627731 0.500000 0.661666 T T T
0.627731 0.500000 0.710866 T T T
0.627731 0.500000 0.760066 T T T
0.627731 0.500000 0.809266 T T T
0.627731 0.500000 0.858466 T T T
0.627731 0.500000 0.907666 T T T
0.627731 0.500000 0.956866 T T T
0.586071 0.500000 0.686266 T T T
0.586071 0.500000 0.735466 T T T
0.586071 0.500000 0.784666 T T T
0.586071 0.500000 0.833866 T T T
0.586071 0.500000 0.883066 T T T
0.586071 0.500000 0.932266 T T T
0.586071 0.500000 0.981466 T T T
0.711071 0.500000 0.661666 T T T
0.711071 0.500000 0.710866 T T T
0.711071 0.500000 0.760066 T T T
0.711071 0.500000 0.809266 T T T
0.711071 0.500000 0.858466 T T T
0.711071 0.500000 0.907666 T T T
0.711071 0.500000 0.956866 T T T
0.752731 0.500000 0.686266 T T T
0.752731 0.500000 0.735466 T T T
0.752731 0.500000 0.784666 T T T
0.752731 0.500000 0.833866 T T T
0.752731 0.500000 0.883066 T T T
0.752731 0.500000 0.932266 T T T
0.752731 0.500000 0.981466 T T T
0.877731 0.500000 0.661666 T T T
0.877731 0.500000 0.710866 T T T
0.877731 0.500000 0.760066 T T T
0.877731 0.500000 0.809266 T T T
0.877731 0.500000 0.858466 T T T
0.877731 0.500000 0.907666 T T T
0.877731 0.500000 0.956866 T T T
0.836071 0.500000 0.686266 T T T
0.836071 0.500000 0.735466 T T T
0.836071 0.500000 0.784666 T T T
0.836071 0.500000 0.833866 T T T
0.836071 0.500000 0.883066 T T T
0.836071 0.500000 0.932266 T T T
0.836071 0.500000 0.981466 T T T
0.961071 0.500000 0.661666 T T T
0.961071 0.500000 0.710866 T T T
0.961071 0.500000 0.760066 T T T
0.961071 0.500000 0.809266 T T T
0.961071 0.500000 0.858466 T T T
0.961071 0.500000 0.907666 T T T
0.961071 0.500000 0.956866 T T T
0.002731 0.500000 0.686266 T T T
0.002731 0.500000 0.735466 T T T
0.002731 0.500000 0.784666 T T T
0.002731 0.500000 0.833866 T T T
0.002731 0.500000 0.883066 T T T
0.002731 0.500000 0.932266 T T T
0.002731 0.500000 0.981466 T T T
0.127731 0.500000 0.661666 T T T
0.127731 0.500000 0.710866 T T T
0.127731 0.500000 0.760066 T T T
0.127731 0.500000 0.809266 T T T
0.127731 0.500000 0.858466 T T T
0.127731 0.500000 0.907666 T T T
0.127731 0.500000 0.956866 T T T
0.086071 0.500000 0.686266 T T T
0.086071 0.500000 0.735466 T T T
0.086071 0.500000 0.784666 T T T
0.086071 0.500000 0.833866 T T T
0.086071 0.500000 0.883066 T T T
0.086071 0.500000 0.932266 T T T
0.086071 0.500000 0.981466 T T T
0.211071 0.500000 0.661666 T T T
0.211071 0.500000 0.710866 T T T
0.211071 0.500000 0.760066 T T T
0.211071 0.500000 0.809266 T T T
0.211071 0.500000 0.858466 T T T
0.211071 0.500000 0.907666 T T T
0.211071 0.500000 0.956866 T T T
0.997670 0.500000 0.171310 F F F
0.997670 0.500000 0.256530 F F F
0.997670 0.500000 0.341750 F F F
0.997670 0.500000 0.426960 F F F
0.997670 0.500000 0.199720 F F F
0.997670 0.500000 0.284930 F F F
0.997670 0.500000 0.370150 F F F
0.997670 0.500000 0.455370 F F F
0.926240 0.500000 0.213920 F F F
0.926240 0.500000 0.299140 F F F
0.926240 0.500000 0.384350 F F F
0.926240 0.500000 0.469570 F F F
0.926240 0.500000 0.157110 F F F
0.926240 0.500000 0.242330 F F F
0.926240 0.500000 0.327540 F F F
0.926240 0.500000 0.412760 F F F
0.854810 0.500000 0.171310 F F F
0.854810 0.500000 0.256530 F F F
0.854810 0.500000 0.341750 F F F
0.854810 0.500000 0.426960 F F F
0.783380 0.500000 0.213920 F F F
0.783380 0.500000 0.299140 F F F
0.783380 0.500000 0.384350 F F F
0.783380 0.500000 0.469570 F F F
0.854810 0.500000 0.199720 F F F
0.854810 0.500000 0.284930 F F F
0.854810 0.500000 0.370150 F F F
0.854810 0.500000 0.455370 F F F
0.783380 0.500000 0.157110 F F F
0.783380 0.500000 0.242330 F F F
0.783380 0.500000 0.327540 F F F
0.783380 0.500000 0.412760 F F F
0.711960 0.500000 0.171310 F F F
0.711960 0.500000 0.256530 F F F
0.711960 0.500000 0.341750 F F F
0.711960 0.500000 0.426960 F F F
0.640530 0.500000 0.213920 F F F
0.640530 0.500000 0.299140 F F F
0.640530 0.500000 0.384350 F F F
0.640530 0.500000 0.469570 F F F
0.711960 0.500000 0.199720 F F F
0.711960 0.500000 0.284930 F F F
0.711960 0.500000 0.370150 F F F
0.711960 0.500000 0.455370 F F F
0.640530 0.500000 0.157110 F F F
0.640530 0.500000 0.242330 F F F
0.640530 0.500000 0.327540 F F F
0.640530 0.500000 0.412760 F F F
0.569100 0.500000 0.171310 F F F
0.569100 0.500000 0.256530 F F F
0.569100 0.500000 0.341750 F F F
0.569100 0.500000 0.426960 F F F
0.497670 0.500000 0.213920 F F F
0.497670 0.500000 0.299140 F F F
0.497670 0.500000 0.384350 F F F
0.497670 0.500000 0.469570 F F F
0.569100 0.500000 0.199720 F F F
0.569100 0.500000 0.284930 F F F
0.569100 0.500000 0.370150 F F F
0.569100 0.500000 0.455370 F F F
0.497670 0.500000 0.157110 F F F
0.497670 0.500000 0.242330 F F F
0.497670 0.500000 0.327540 F F F
0.497670 0.500000 0.412760 F F F
0.426240 0.500000 0.171310 F F F
0.426240 0.500000 0.256530 F F F
0.426240 0.500000 0.341750 F F F
0.426240 0.500000 0.426960 F F F
0.354810 0.500000 0.213920 F F F
0.354810 0.500000 0.299140 F F F
0.354810 0.500000 0.384350 F F F
0.354810 0.500000 0.469570 F F F
0.426240 0.500000 0.199720 F F F
0.426240 0.500000 0.284930 F F F
0.426240 0.500000 0.370150 F F F
0.426240 0.500000 0.455370 F F F
0.354810 0.500000 0.157110 F F F
0.354810 0.500000 0.242330 F F F
0.354810 0.500000 0.327540 F F F
0.354810 0.500000 0.412760 F F F
0.283380 0.500000 0.171310 F F F
0.283380 0.500000 0.256530 F F F
0.283380 0.500000 0.341750 F F F
0.283380 0.500000 0.426960 F F F
0.211960 0.500000 0.213920 F F F
0.211960 0.500000 0.299140 F F F
0.211960 0.500000 0.384350 F F F
0.211960 0.500000 0.469570 F F F
0.283380 0.500000 0.199720 F F F
0.283380 0.500000 0.284930 F F F
0.283380 0.500000 0.370150 F F F
0.283380 0.500000 0.455370 F F F
0.211960 0.500000 0.157110 F F F
0.211960 0.500000 0.242330 F F F
0.211960 0.500000 0.327540 F F F
0.211960 0.500000 0.412760 F F F
0.140530 0.500000 0.171310 F F F
0.140530 0.500000 0.256530 F F F
0.140530 0.500000 0.341750 F F F
0.140530 0.500000 0.426960 F F F
0.069100 0.500000 0.213920 F F F
0.069100 0.500000 0.299140 F F F
0.069100 0.500000 0.384350 F F F
0.069100 0.500000 0.469570 F F F
0.140530 0.500000 0.199720 F F F
0.140530 0.500000 0.284930 F F F
0.140530 0.500000 0.370150 F F F
0.140530 0.500000 0.455370 F F F
0.069100 0.500000 0.157110 F F F
0.069100 0.500000 0.242330 F F F
0.069100 0.500000 0.327540 F F F
0.069100 0.500000 0.412760 F F F
0.247947 0.553426 0.499273 T T T
0.345147 0.052807 0.518287 T T T
0.048451 0.992238 0.555891 T T T
0.529352 0.261922 0.539944 T T T
0.540512 0.268666 0.513733 T T T
0.918842 0.470447 0.499175 T T T
0.186557 0.011005 0.542949 T T T
0.906726 0.122316 0.496436 T T T
0.845617 0.963027 0.473479 T T T
0.303327 0.199879 0.490318 T T T
0.448451 0.903069 0.510615 T T T
0.481983 0.925806 0.483075 T T T
0.385426 0.933307 0.483568 T T T
0.631573 0.062146 0.512466 T T T
0.545382 0.526126 0.613449 T T T
0.473165 0.754381 0.563185 T T T
0.953709 0.778988 0.535330 T T T
0.861533 0.957242 0.611641 T T T
0.611446 0.619158 0.534346 T T T
0.596719 0.896996 0.537030 T T T
0.428577 0.035765 0.520617 T T T
0.474918 0.036347 0.635522 T T T
0.898275 0.596194 0.642545 T T T
0.326885 0.229634 0.640794 T T T
0.139655 0.256534 0.600828 T T T
0.252087 0.263093 0.640671 T T T
0.980323 0.940293 0.565998 T T T
0.854152 0.671809 0.604980 T T T
0.839142 0.375396 0.630360 T T T
0.958283 0.861197 0.592948 T T T
0.313768 0.003154 0.659968 T T T
0.064711 0.906955 0.660003 T T T
0.633461 0.035235 0.660000 T T T
0.252731 0.500000 0.686266 T T T
0.252731 0.500000 0.735466 T T T
0.252731 0.500000 0.784666 T T T
0.252731 0.500000 0.833866 T T T
0.252731 0.500000 0.883066 T T T
0.252731 0.500000 0.932266 T T T
0.252731 0.500000 0.981466 T T T
0.377731 0.500000 0.661666 T T T
0.377731 0.500000 0.710866 T T T
0.377731 0.500000 0.760066 T T T
0.377731 0.500000 0.809266 T T T
0.377731 0.500000 0.858466 T T T
0.377731 0.500000 0.907666 T T T
0.377731 0.500000 0.956866 T T T
0.336071 0.500000 0.686266 T T T
0.336071 0.500000 0.735466 T T T
0.336071 0.500000 0.784666 T T T
0.336071 0.500000 0.833866 T T T
0.336071 0.500000 0.883066 T T T
0.336071 0.500000 0.932266 T T T
0.336071 0.500000 0.981466 T T T
0.461071 0.500000 0.661666 T T T
0.461071 0.500000 0.710866 T T T
0.461071 0.500000 0.760066 T T T
0.461071 0.500000 0.809266 T T T
0.461071 0.500000 0.858466 T T T
0.461071 0.500000 0.907666 T T T
0.461071 0.500000 0.956866 T T T
0.502731 0.500000 0.686266 T T T
0.502731 0.500000 0.735466 T T T
0.219451 0.500000 0.001216 T T T
0.369341 0.500000 0.001216 T T T
0.469581 0.500000 0.001236 T T T
0.619341 0.500000 0.001216 T T T
0.719581 0.500000 0.001236 T T T
0.869341 0.500000 0.001216 T T T
0.969581 0.500000 0.001236 T T T
0.119341 0.500000 0.001216 T T T
0.926100 0.500000 0.134310 F F F
0.783520 0.500000 0.134310 F F F
0.640670 0.500000 0.134310 F F F
0.497810 0.500000 0.134310 F F F
0.354950 0.500000 0.134310 F F F
0.212100 0.500000 0.134310 F F F
0.068960 0.500000 0.134310 F F F
0.344776 0.016943 0.470771 T T T
0.760765 0.283878 0.514191 T T T
0.472002 0.868665 0.467088 T T T
0.285282 0.032892 0.522314 T T T
0.247857 0.896600 0.469939 T T T
0.349922 0.925131 0.522725 T T T
0.660968 0.371819 0.473860 T T T
0.881835 0.940012 0.489018 T T T
0.060980 0.059272 0.493257 T T T
0.374745 0.876346 0.470155 T T T
0.156445 0.759822 0.506842 T T T
0.869930 0.055307 0.528586 T T T
0.292336 0.303252 0.505470 T T T
0.180747 0.311269 0.518564 T T T
0.755995 0.838613 0.540726 T T T
0.200116 0.472361 0.492538 T T T
0.765862 0.652194 0.518552 T T T
0.781123 0.993271 0.528606 T T T
0.308525 0.925215 0.614565 T T T
0.945252 0.498572 0.542682 T T T
0.423136 0.667927 0.520451 T T T
0.927220 0.710653 0.638374 T T T
0.268575 0.843672 0.600452 T T T
0.120303 0.597094 0.657923 T T T
0.766390 0.697383 0.659481 T T T
0.611447 0.600944 0.578889 T T T
0.555378 0.656689 0.528800 T T T
0.831365 0.892983 0.536943 T T T
