search
1.0
17.131700 0.000000 0.000000
0.000000 10.000000 0.000000
0.000000 0.000000 50.000000
C H 
227 73 
Selective dynamics
Direct
0.235487 0.500000 0.784718 T T T
0.235487 0.500000 0.833918 T T T
0.235487 0.500000 0.883118 T T T
0.235487 0.500000 0.932318 T T T
0.235487 0.500000 0.981518 T T T
0.360487 0.500000 0.661718 T T T
0.360487 0.500000 0.710918 T T T
0.360487 0.500000 0.760118 T T T
0.360487 0.500000 0.809318 T T T
0.360487 0.500000 0.858518 T T T
0.360487 0.500000 0.907718 T T T
0.360487 0.500000 0.956918 T T T
0.318827 0.500000 0.686318 T T T
0.318827 0.500000 0.735518 T T T
0.318827 0.500000 0.784718 T T T
0.318827 0.500000 0.833918 T T T
0.318827 0.500000 0.883118 T T T
0.318827 0.500000 0.932318 T T T
0.318827 0.500000 0.981518 T T T
0.443827 0.500000 0.661718 T T T
0.443827 0.500000 0.710918 T T T
0.443827 0.500000 0.760118 T T T
0.443827 0.500000 0.809318 T T T
0.443827 0.500000 0.858518 T T T
0.443827 0.500000 0.907718 T T T
0.443827 0.500000 0.956918 T T T
0.485487 0.500000 0.686318 T T T
0.485487 0.500000 0.735518 T T T
0.485487 0.500000 0.784718 T T T
0.485487 0.500000 0.833918 T T T
0.485487 0.500000 0.883118 T T T
0.485487 0.500000 0.932318 T T T
0.485487 0.500000 0.981518 T T T
0.610487 0.500000 0.661718 T T T
0.610487 0.500000 0.710918 T T T
0.610487 0.500000 0.760118 T T T
0.610487 0.500000 0.809318 T T T
0.610487 0.500000 0.858518 T T T
0.610487 0.500000 0.907718 T T T
0.610487 0.500000 0.956918 T T T
0.568827 0.500000 0.686318 T T T
0.568827 0.500000 0.735518 T T T
0.568827 0.500000 0.784718 T T T
0.568827 0.500000 0.833918 T T T
0.568827 0.500000 0.883118 T T T
0.568827 0.500000 0.932318 T T T
0.568827 0.500000 0.981518 T T T
0.693827 0.500000 0.661718 T T T
0.693827 0.500000 0.710918 T T T
0.693827 0.500000 0.760118 T T T
0.693827 0.500000 0.809318 T T T
0.693827 0.500000 0.858518 T T T
0.693827 0.500000 0.907718 T T T
0.693827 0.500000 0.956918 T T T
0.735487 0.500000 0.686318 T T T
0.735487 0.500000 0.735518 T T T
0.735487 0.500000 0.784718 T T T
0.735487 0.500000 0.833918 T T T
0.735487 0.500000 0.883118 T T T
0.735487 0.500000 0.932318 T T T
0.735487 0.500000 0.981518 T T T
0.860487 0.500000 0.661718 T T T
0.860487 0.500000 0.710918 T T T
0.860487 0.500000 0.760118 T T T
0.860487 0.500000 0.809318 T T T
0.860487 0.500000 0.858518 T T T
0.860487 0.500000 0.907718 T T T
0.860487 0.500000 0.956918 T T T
0.818827 0.500000 0.686318 T T T
0.818827 0.500000 0.735518 T T T
0.818827 0.500000 0.784718 T T T
0.818827 0.500000 0.833918 T T T
0.818827 0.500000 0.883118 T T T
0.818827 0.500000 0.932318 T T T
0.818827 0.500000 0.981518 T T T
0.943827 0.500000 0.661718 T T T
0.943827 0.500000 0.710918 T T T
0.943827 0.500000 0.760118 T T T
0.943827 0.500000 0.809318 T T T
0.943827 0.500000 0.858518 T T T
0.943827 0.500000 0.907718 T T T
0.943827 0.500000 0.956918 T T T
0.997670 0.500000 0.171310 F F F
0.997670 0.500000 0.256530 F F F
0.997670 0.500000 0.341750 F F F
0.997670 0.500000 0.426960 F F F
0.997670 0.500000 0.199720 F F F
0.997670 0.500000 0.284930 F F F
0.997670 0.500000 0.370150 F F F
0.997670 0.500000 0.455370 F F F
0.926240 0.500000 0.213920 F F F
0.926240 0.500000 0.299140 F F F
0.926240 0.500000 0.384350 F F F
0.926240 0.500000 0.469570 F F F
0.926240 0.500000 0.157110 F F F
0.926240 0.500000 0.242330 F F F
0.926240 0.500000 0.327540 F F F
0.926240 0.500000 0.412760 F F F
0.854810 0.500000 0.171310 F F F
0.854810 0.500000 0.256530 F F F
0.854810 0.500000 0.341750 F F F
0.854810 0.500000 0.426960 F F F
0.783380 0.500000 0.213920 F F F
0.783380 0.500000 0.299140 F F F
0.783380 0.500000 0.384350 F F F
0.783380 0.500000 0.469570 F F F
0.854810 0.500000 0.199720 F F F
0.854810 0.500000 0.284930 F F F
0.854810 0.500000 0.370150 F F F
0.854810 0.500000 0.455370 F F F
0.783380 0.500000 0.157110 F F F
0.783380 0.500000 0.242330 F F F
0.783380 0.500000 0.327540 F F F
0.783380 0.500000 0.412760 F F F
0.711960 0.500000 0.171310 F F F
0.711960 0.500000 0.256530 F F F
0.711960 0.500000 0.341750 F F F
0.711960 0.500000 0.426960 F F F
0.640530 0.500000 0.213920 F F F
0.640530 0.500000 0.299140 F F F
0.640530 0.500000 0.384350 F F F
0.640530 0.500000 0.469570 F F F
0.711960 0.500000 0.199720 F F F
0.711960 0.500000 0.284930 F F F
0.711960 0.500000 0.370150 F F F
0.711960 0.500000 0.455370 F F F
0.640530 0.500000 0.157110 F F F
0.640530 0.500000 0.242330 F F F
0.640530 0.500000 0.327540 F F F
0.640530 0.500000 0.412760 F F F
0.569100 0.500000 0.171310 F F F
0.569100 0.500000 0.256530 F F F
0.569100 0.500000 0.341750 F F F
0.569100 0.500000 0.426960 F F F
0.497670 0.500000 0.213920 F F F
0.497670 0.500000 0.299140 F F F
0.497670 0.500000 0.384350 F F F
0.497670 0.500000 0.469570 F F F
0.569100 0.500000 0.199720 F F F
0.569100 0.500000 0.284930 F F F
0.569100 0.500000 0.370150 F F F
0.569100 0.500000 0.455370 F F F
0.497670 0.500000 0.157110 F F F
0.497670 0.500000 0.242330 F F F
0.497670 0.500000 0.327540 F F F
0.497670 0.500000 0.412760 F F F
0.426240 0.500000 0.171310 F F F
0.426240 0.500000 0.256530 F F F
0.426240 0.500000 0.341750 F F F
0.426240 0.500000 0.426960 F F F
0.354810 0.500000 0.213920 F F F
0.354810 0.500000 0.299140 F F F
0.354810 0.500000 0.384350 F F F
0.354810 0.500000 0.469570 F F F
0.426240 0.500000 0.199720 F F F
0.426240 0.500000 0.284930 F F F
0.426240 0.500000 0.370150 F F F
0.426240 0.500000 0.455370 F F F
0.354810 0.500000 0.157110 F F F
0.354810 0.500000 0.242330 F F F
0.354810 0.500000 0.327540 F F F
0.354810 0.500000 0.412760 F F F
0.283380 0.500000 0.171310 F F F
0.283380 0.500000 0.256530 F F F
0.283380 0.500000 0.341750 F F F
0.283380 0.500000 0.426960 F F F
0.211960 0.500000 0.213920 F F F
0.211960 0.500000 0.299140 F F F
0.211960 0.500000 0.384350 F F F
0.211960 0.500000 0.469570 F F F
0.283380 0.500000 0.199720 F F F
0.283380 0.500000 0.284930 F F F
0.283380 0.500000 0.370150 F F F
0.283380 0.500000 0.455370 F F F
0.211960 0.500000 0.157110 F F F
0.211960 0.500000 0.242330 F F F
0.211960 0.500000 0.327540 F F F
0.211960 0.500000 0.412760 F F F
0.140530 0.500000 0.171310 F F F
0.140530 0.500000 0.256530 F F F
0.140530 0.500000 0.341750 F F F
0.140530 0.500000 0.426960 F F F
0.069100 0.500000 0.213920 F F F
0.069100 0.500000 0.299140 F F F
0.069100 0.500000 0.384350 F F F
0.069100 0.500000 0.469570 F F F
0.140530 0.500000 0.199720 F F F
0.140530 0.500000 0.284930 F F F
0.140530 0.500000 0.370150 F F F
0.140530 0.500000 0.455370 F F F
0.069100 0.500000 0.157110 F F F
0.069100 0.500000 0.242330 F F F
0.069100 0.500000 0.327540 F F F
0.069100 0.500000 0.412760 F F F
0.329929 0.342429 0.475898 T T T
0.755564 0.681429 0.479377 T T T
0.245003 0.629419 0.540193 T T T
0.304896 0.705493 0.470271 T T T
0.478723 0.873924 0.486195 T T T
0.654014 0.264066 0.470006 T T T
0.061912 0.699516 0.524282 T T T
0.038738 0.614675 0.485113 T T T
0.960712 0.634857 0.466771 T T T
0.722677 0.817365 0.483836 T T T
0.262335 0.983452 0.476540 T T T
0.118797 0.001472 0.516171 T T T
0.103351 0.714927 0.548486 T T T
0.531134 0.813268 0.471704 T T T
0.002268 0.797027 0.510049 T T T
0.165308 0.819427 0.480964 T T T
0.532604 0.286351 0.608473 T T T
0.283076 0.282031 0.565268 T T T
0.713482 0.697870 0.524265 T T T
0.962143 0.691391 0.495851 T T T
0.802976 0.873424 0.495761 T T T
0.975309 0.964750 0.584130 T T T
0.110334 0.554241 0.621436 T T T
0.350455 0.361913 0.621897 T T T
0.782862 0.441715 0.625572 T T T
0.971093 0.683312 0.639244 T T T
0.029980 0.959205 0.565590 T T T
0.936714 0.306823 0.622764 T T T
0.050752 0.658556 0.637789 T T T
0.185555 0.592446 0.614726 T T T
0.242146 0.726383 0.652657 T T T
0.603009 0.872178 0.660004 T T T
0.124021 0.983080 0.659997 T T T
0.985487 0.500000 0.686318 T T T
0.985487 0.500000 0.735518 T T T
0.985487 0.500000 0.784718 T T T
0.985487 0.500000 0.833918 T T T
0.985487 0.500000 0.883118 T T T
0.985487 0.500000 0.932318 T T T
0.985487 0.500000 0.981518 T T T
0.110487 0.500000 0.661718 T T T
0.110487 0.500000 0.710918 T T T
0.110487 0.500000 0.760118 T T T
0.110487 0.500000 0.809318 T T T
0.110487 0.500000 0.858518 T T T
0.110487 0.500000 0.907718 T T T
0.110487 0.500000 0.956918 T T T
0.068827 0.500000 0.686318 T T T
0.068827 0.500000 0.735518 T T T
0.068827 0.500000 0.784718 T T T
0.068827 0.500000 0.833918 T T T
0.068827 0.500000 0.883118 T T T
0.068827 0.500000 0.932318 T T T
0.068827 0.500000 0.981518 T T T
0.193827 0.500000 0.661718 T T T
0.193827 0.500000 0.710918 T T T
0.193827 0.500000 0.760118 T T T
0.193827 0.500000 0.809318 T T T
0.193827 0.500000 0.858518 T T T
0.193827 0.500000 0.907718 T T T
0.193827 0.500000 0.956918 T T T
0.235487 0.500000 0.686318 T T T
0.235487 0.500000 0.735518 T T T
0.952207 0.500000 0.001268 T T T
0.102097 0.500000 0.001268 T T T
0.202337 0.500000 0.001288 T T T
0.352097 0.500000 0.001268 T T T
0.452337 0.500000 0.001288 T T T
0.602097 0.500000 0.001268 T T T
0.702337 0.500000 0.001288 T T T
0.852097 0.500000 0.001268 T T T
0.926100 0.500000 0.134310 F F F
0.783520 0.500000 0.134310 F F F
0.640670 0.500000 0.134310 F F F
0.497810 0.500000 0.134310 F F F
0.354950 0.500000 0.134310 F F F
0.212100 0.500000 0.134310 F F F
0.068960 0.500000 0.134310 F F F
0.179273 0.076281 0.510962 T T T
0.913471 0.152131 0.478100 T T T
0.666086 0.769474 0.473002 T T T
0.716560 0.371043 0.574536 T T T
0.186235 0.124729 0.469999 T T T
0.048234 0.988056 0.518899 T T T
0.735537 0.893845 0.468105 T T T
0.125079 0.354238 0.475024 T T T
0.007645 0.661473 0.533425 T T T
0.321693 0.200322 0.554182 T T T
0.384923 0.358563 0.556136 T T T
0.737018 0.845409 0.581978 T T T
0.131112 0.266773 0.569433 T T T
0.898096 0.879450 0.556388 T T T
0.108069 0.097065 0.532653 T T T
0.661323 0.897984 0.548944 T T T
0.461258 0.147926 0.531830 T T T
0.870398 0.658746 0.586032 T T T
0.644187 0.544709 0.622017 T T T
0.394861 0.772438 0.638199 T T T
0.860967 0.041453 0.659997 T T T
0.468027 0.383731 0.656313 T T T
0.911597 0.627002 0.628384 T T T
0.267879 0.825688 0.659292 T T T
0.684237 0.283955 0.579009 T T T
0.225760 0.210502 0.565612 T T T
0.883086 0.320442 0.611772 T T T
0.589108 0.412199 0.649024 T T T
