search
1.0
17.131700 0.000000 0.000000
0.000000 10.000000 0.000000
0.000000 0.000000 50.000000
C H 
227 73 
Selective dynamics
Direct
0.502826 0.500000 0.828207 T T T
0.502826 0.500000 0.877407 T T T
0.502826 0.500000 0.926607 T T T
0.502826 0.500000 0.975807 T T T
0.502826 0.500000 0.025007 T T T
0.627826 0.500000 0.705207 T T T
0.627826 0.500000 0.754407 T T T
0.627826 0.500000 0.803607 T T T
0.627826 0.500000 0.852807 T T T
0.627826 0.500000 0.902007 T T T
0.627826 0.500000 0.951207 T T T
0.627826 0.500000 0.000407 T T T
0.586166 0.500000 0.729807 T T T
0.586166 0.500000 0.779007 T T T
0.586166 0.500000 0.828207 T T T
0.586166 0.500000 0.877407 T T T
0.586166 0.500000 0.926607 T T T
0.586166 0.500000 0.975807 T T T
0.586166 0.500000 0.025007 T T T
0.711166 0.500000 0.705207 T T T
0.711166 0.500000 0.754407 T T T
0.711166 0.500000 0.803607 T T T
0.711166 0.500000 0.852807 T T T
0.711166 0.500000 0.902007 T T T
0.711166 0.500000 0.951207 T T T
0.711166 0.500000 0.000407 T T T
0.752826 0.500000 0.729807 T T T
0.752826 0.500000 0.779007 T T T
0.752826 0.500000 0.828207 T T T
0.752826 0.500000 0.877407 T T T
0.752826 0.500000 0.926607 T T T
0.752826 0.500000 0.975807 T T T
0.752826 0.500000 0.025007 T T T
0.877826 0.500000 0.705207 T T T
0.877826 0.500000 0.754407 T T T
0.877826 0.500000 0.803607 T T T
0.877826 0.500000 0.852807 T T T
0.877826 0.500000 0.902007 T T T
0.877826 0.500000 0.951207 T T T
0.877826 0.500000 0.000407 T T T
0.836166 0.500000 0.729807 T T T
0.836166 0.500000 0.779007 T T T
0.836166 0.500000 0.828207 T T T
0.836166 0.500000 0.877407 T T T
0.836166 0.500000 0.926607 T T T
0.836166 0.500000 0.975807 T T T
0.836166 0.500000 0.025007 T T T
0.961166 0.500000 0.705207 T T T
0.961166 0.500000 0.754407 T T T
0.961166 0.500000 0.803607 T T T
0.961166 0.500000 0.852807 T T T
0.961166 0.500000 0.902007 T T T
0.961166 0.500000 0.951207 T T T
0.961166 0.500000 0.000407 T T T
0.002826 0.500000 0.729807 T T T
0.002826 0.500000 0.779007 T T T
0.002826 0.500000 0.828207 T T T
0.002826 0.500000 0.877407 T T T
0.002826 0.500000 0.926607 T T T
0.002826 0.500000 0.975807 T T T
0.002826 0.500000 0.025007 T T T
0.127826 0.500000 0.705207 T T T
0.127826 0.500000 0.754407 T T T
0.127826 0.500000 0.803607 T T T
0.127826 0.500000 0.852807 T T T
0.127826 0.500000 0.902007 T T T
0.127826 0.500000 0.951207 T T T
0.127826 0.500000 0.000407 T T T
0.086166 0.500000 0.729807 T T T
0.086166 0.500000 0.779007 T T T
0.086166 0.500000 0.828207 T T T
0.086166 0.500000 0.877407 T T T
0.086166 0.500000 0.926607 T T T
0.086166 0.500000 0.975807 T T T
0.086166 0.500000 0.025007 T T T
0.211166 0.500000 0.705207 T T T
0.211166 0.500000 0.754407 T T T
0.211166 0.500000 0.803607 T T T
0.211166 0.500000 0.852807 T T T
0.211166 0.500000 0.902007 T T T
0.211166 0.500000 0.951207 T T T
0.211166 0.500000 0.000407 T T T
0.997670 0.500000 0.171310 F F F
0.997670 0.500000 0.256530 F F F
0.997670 0.500000 0.341750 F F F
0.997670 0.500000 0.426960 F F F
0.997670 0.500000 0.199720 F F F
0.997670 0.500000 0.284930 F F F
0.997670 0.500000 0.370150 F F F
0.997670 0.500000 0.455370 F F F
0.926240 0.500000 0.213920 F F F
0.926240 0.500000 0.299140 F F F
0.926240 0.500000 0.384350 F F F
0.926240 0.500000 0.469570 F F F
0.926240 0.500000 0.157110 F F F
0.926240 0.500000 0.242330 F F F
0.926240 0.500000 0.327540 F F F
0.926240 0.500000 0.412760 F F F
0.854810 0.500000 0.171310 F F F
0.854810 0.500000 0.256530 F F F
0.854810 0.500000 0.341750 F F F
0.854810 0.500000 0.426960 F F F
0.783380 0.500000 0.213920 F F F
0.783380 0.500000 0.299140 F F F
0.783380 0.500000 0.384350 F F F
0.783380 0.500000 0.469570 F F F
0.854810 0.500000 0.199720 F F F
0.854810 0.500000 0.284930 F F F
0.854810 0.500000 0.370150 F F F
0.854810 0.500000 0.455370 F F F
0.783380 0.500000 0.157110 F F F
0.783380 0.500000 0.242330 F F F
0.783380 0.500000 0.327540 F F F
0.783380 0.500000 0.412760 F F F
0.711960 0.500000 0.171310 F F F
0.711960 0.500000 0.256530 F F F
0.711960 0.500000 0.341750 F F F
0.711960 0.500000 0.426960 F F F
0.640530 0.500000 0.213920 F F F
0.640530 0.500000 0.299140 F F F
0.640530 0.500000 0.384350 F F F
0.640530 0.500000 0.469570 F F F
0.711960 0.500000 0.199720 F F F
0.711960 0.500000 0.284930 F F F
0.711960 0.500000 0.370150 F F F
0.711960 0.500000 0.455370 F F F
0.640530 0.500000 0.157110 F F F
0.640530 0.500000 0.242330 F F F
0.640530 0.500000 0.327540 F F F
0.640530 0.500000 0.412760 F F F
0.569100 0.500000 0.171310 F F F
0.569100 0.500000 0.256530 F F F
0.569100 0.500000 0.341750 F F F
0.569100 0.500000 0.426960 F F F
0.497670 0.500000 0.213920 F F F
0.497670 0.500000 0.299140 F F F
0.497670 0.500000 0.384350 F F F
0.497670 0.500000 0.469570 F F F
0.569100 0.500000 0.199720 F F F
0.569100 0.500000 0.284930 F F F
0.569100 0.500000 0.370150 F F F
0.569100 0.500000 0.455370 F F F
0.497670 0.500000 0.157110 F F F
0.497670 0.500000 0.242330 F F F
0.497670 0.500000 0.327540 F F F
0.497670 0.500000 0.412760 F F F
0.426240 0.500000 0.171310 F F F
0.426240 0.500000 0.256530 F F F
0.426240 0.500000 0.341750 F F F
0.426240 0.500000 0.426960 F F F
0.354810 0.500000 0.213920 F F F
0.354810 0.500000 0.299140 F F F
0.354810 0.500000 0.384350 F F F
0.354810 0.500000 0.469570 F F F
0.426240 0.500000 0.199720 F F F
0.426240 0.500000 0.284930 F F F
0.426240 0.500000 0.370150 F F F
0.426240 0.500000 0.455370 F F F
0.354810 0.500000 0.157110 F F F
0.354810 0.500000 0.242330 F F F
0.354810 0.500000 0.327540 F F F
0.354810 0.500000 0.412760 F F F
0.283380 0.500000 0.171310 F F F
0.283380 0.500000 0.256530 F F F
0.283380 0.500000 0.341750 F F F
0.283380 0.500000 0.426960 F F F
0.211960 0.500000 0.213920 F F F
0.211960 0.500000 0.299140 F F F
0.211960 0.500000 0.384350 F F F
0.211960 0.500000 0.469570 F F F
0.283380 0.500000 0.199720 F F F
0.283380 0.500000 0.284930 F F F
0.283380 0.500000 0.370150 F F F
0.283380 0.500000 0.455370 F F F
0.211960 0.500000 0.157110 F F F
0.211960 0.500000 0.242330 F F F
0.211960 0.500000 0.327540 F F F
0.211960 0.500000 0.412760 F F F
0.140530 0.500000 0.171310 F F F
0.140530 0.500000 0.256530 F F F
0.140530 0.500000 0.341750 F F F
0.140530 0.500000 0.426960 F F F
0.069100 0.500000 0.213920 F F F
0.069100 0.500000 0.299140 F F F
0.069100 0.500000 0.384350 F F F
0.069100 0.500000 0.469570 F F F
0.140530 0.500000 0.199720 F F F
0.140530 0.500000 0.284930 F F F
0.140530 0.500000 0.370150 F F F
0.140530 0.500000 0.455370 F F F
0.069100 0.500000 0.157110 F F F
0.069100 0.500000 0.242330 F F F
0.069100 0.500000 0.327540 F F F
0.069100 0.500000 0.412760 F F F
0.404622 0.187714 0.499546 T T T
0.160922 0.418934 0.531169 T T T
0.369580 0.548385 0.494394 T T T
0.826216 0.580524 0.529638 T T T
0.034844 0.614009 0.564768 T T T
0.504392 0.978134 0.478554 T T T
0.393669 0.887050 0.488751 T T T
0.801131 0.328495 0.518390 T T T
0.194714 0.494652 0.511359 T T T
0.561293 0.461863 0.481754 T T T
0.785748 0.938961 0.559226 T T T
0.281121 0.043450 0.578475 T T T
0.283619 0.444051 0.563519 T T T
0.545535 0.459623 0.620857 T T T
0.156922 0.644637 0.640642 T T T
0.296096 0.740700 0.636196 T T T
0.522873 0.583884 0.636754 T T T
0.287130 0.583944 0.645188 T T T
0.942300 0.467857 0.502874 T T T
0.536717 0.581376 0.581016 T T T
0.643393 0.667993 0.617894 T T T
0.977412 0.785447 0.638482 T T T
0.044350 0.292683 0.643751 T T T
0.762838 0.145360 0.647577 T T T
0.061009 0.427126 0.687576 T T T
0.342669 0.804986 0.672444 T T T
0.884657 0.952056 0.605626 T T T
0.331033 0.839144 0.703077 T T T
0.959563 0.172599 0.678552 T T T
0.778139 0.300348 0.682177 T T T
0.222534 0.837757 0.677280 T T T
0.602122 0.766276 0.683208 T T T
0.139419 0.795193 0.692968 T T T
0.252826 0.500000 0.729807 T T T
0.252826 0.500000 0.779007 T T T
0.252826 0.500000 0.828207 T T T
0.252826 0.500000 0.877407 T T T
0.252826 0.500000 0.926607 T T T
0.252826 0.500000 0.975807 T T T
0.252826 0.500000 0.025007 T T T
0.377826 0.500000 0.705207 T T T
0.377826 0.500000 0.754407 T T T
0.377826 0.500000 0.803607 T T T
0.377826 0.500000 0.852807 T T T
0.377826 0.500000 0.902007 T T T
0.377826 0.500000 0.951207 T T T
0.377826 0.500000 0.000407 T T T
0.336166 0.500000 0.729807 T T T
0.336166 0.500000 0.779007 T T T
0.336166 0.500000 0.828207 T T T
0.336166 0.500000 0.877407 T T T
0.336166 0.500000 0.926607 T T T
0.336166 0.500000 0.975807 T T T
0.336166 0.500000 0.025007 T T T
0.461166 0.500000 0.705207 T T T
0.461166 0.500000 0.754407 T T T
0.461166 0.500000 0.803607 T T T
0.461166 0.500000 0.852807 T T T
0.461166 0.500000 0.902007 T T T
0.461166 0.500000 0.951207 T T T
0.461166 0.500000 0.000407 T T T
0.502826 0.500000 0.729807 T T T
0.502826 0.500000 0.779007 T T T
0.219546 0.500000 0.044757 T T T
0.369436 0.500000 0.044757 T T T
0.469676 0.500000 0.044777 T T T
0.619436 0.500000 0.044757 T T T
0.719676 0.500000 0.044777 T T T
0.869436 0.500000 0.044757 T T T
0.969676 0.500000 0.044777 T T T
0.119436 0.500000 0.044757 T T T
0.926100 0.500000 0.134310 F F F
0.783520 0.500000 0.134310 F F F
0.640670 0.500000 0.134310 F F F
0.497810 0.500000 0.134310 F F F
0.354950 0.500000 0.134310 F F F
0.212100 0.500000 0.134310 F F F
0.068960 0.500000 0.134310 F F F
0.714203 0.249437 0.470000 T T T
0.446328 0.303746 0.472270 T T T
0.225581 0.722095 0.519769 T T T
0.610813 0.468052 0.490582 T T T
0.849915 0.273629 0.535601 T T T
0.101092 0.221151 0.500465 T T T
0.742462 0.546485 0.535891 T T T
0.943083 0.895549 0.496930 T T T
0.807709 0.967929 0.509954 T T T
0.043599 0.015131 0.539950 T T T
0.159866 0.188382 0.546238 T T T
0.091962 0.697761 0.556156 T T T
0.913150 0.105098 0.499664 T T T
0.072572 0.490134 0.541574 T T T
0.525539 0.975694 0.561733 T T T
0.193729 0.965652 0.565824 T T T
0.069190 0.283187 0.578921 T T T
0.641149 0.090534 0.558854 T T T
0.973675 0.212954 0.696310 T T T
0.283493 0.544993 0.619947 T T T
0.062610 0.696604 0.621416 T T T
0.247030 0.386258 0.692427 T T T
0.629477 0.328472 0.689540 T T T
0.897129 0.581289 0.666613 T T T
0.835084 0.597200 0.653562 T T T
0.909220 0.706708 0.564085 T T T
0.308306 0.713256 0.561572 T T T
0.891180 0.815984 0.635883 T T T
