search
1.0
17.131700 0.000000 0.000000
0.000000 10.000000 0.000000
0.000000 0.000000 50.000000
C H 
227 73 
Selective dynamics
Direct
0.333257 0.500000 0.787376 T T T
0.333257 0.500000 0.836576 T T T
0.333257 0.500000 0.885776 T T T
0.333257 0.500000 0.934976 T T T
0.333257 0.500000 0.984176 T T T
0.458257 0.500000 0.664376 T T T
0.458257 0.500000 0.713576 T T T
0.458257 0.500000 0.762776 T T T
0.458257 0.500000 0.811976 T T T
0.458257 0.500000 0.861176 T T T
0.458257 0.500000 0.910376 T T T
0.458257 0.500000 0.959576 T T T
0.416597 0.500000 0.688976 T T T
0.416597 0.500000 0.738176 T T T
0.416597 0.500000 0.787376 T T T
0.416597 0.500000 0.836576 T T T
0.416597 0.500000 0.885776 T T T
0.416597 0.500000 0.934976 T T T
0.416597 0.500000 0.984176 T T T
0.541597 0.500000 0.664376 T T T
0.541597 0.500000 0.713576 T T T
0.541597 0.500000 0.762776 T T T
0.541597 0.500000 0.811976 T T T
0.541597 0.500000 0.861176 T T T
0.541597 0.500000 0.910376 T T T
0.541597 0.500000 0.959576 T T T
0.583257 0.500000 0.688976 T T T
0.583257 0.500000 0.738176 T T T
0.583257 0.500000 0.787376 T T T
0.583257 0.500000 0.836576 T T T
0.583257 0.500000 0.885776 T T T
0.583257 0.500000 0.934976 T T T
0.583257 0.500000 0.984176 T T T
0.708257 0.500000 0.664376 T T T
0.708257 0.500000 0.713576 T T T
0.708257 0.500000 0.762776 T T T
0.708257 0.500000 0.811976 T T T
0.708257 0.500000 0.861176 T T T
0.708257 0.500000 0.910376 T T T
0.708257 0.500000 0.959576 T T T
0.666597 0.500000 0.688976 T T T
0.666597 0.500000 0.738176 T T T
0.666597 0.500000 0.787376 T T T
0.666597 0.500000 0.836576 T T T
0.666597 0.500000 0.885776 T T T
0.666597 0.500000 0.934976 T T T
0.666597 0.500000 0.984176 T T T
0.791597 0.500000 0.664376 T T T
0.791597 0.500000 0.713576 T T T
0.791597 0.500000 0.762776 T T T
0.791597 0.500000 0.811976 T T T
0.791597 0.500000 0.861176 T T T
0.791597 0.500000 0.910376 T T T
0.791597 0.500000 0.959576 T T T
0.833257 0.500000 0.688976 T T T
0.833257 0.500000 0.738176 T T T
0.833257 0.500000 0.787376 T T T
0.833257 0.500000 0.836576 T T T
0.833257 0.500000 0.885776 T T T
0.833257 0.500000 0.934976 T T T
0.833257 0.500000 0.984176 T T T
0.958257 0.500000 0.664376 T T T
0.958257 0.500000 0.713576 T T T
0.958257 0.500000 0.762776 T T T
0.958257 0.500000 0.811976 T T T
0.958257 0.500000 0.861176 T T T
0.958257 0.500000 0.910376 T T T
0.958257 0.500000 0.959576 T T T
0.916597 0.500000 0.688976 T T T
0.916597 0.500000 0.738176 T T T
0.916597 0.500000 0.787376 T T T
0.916597 0.500000 0.836576 T T T
0.916597 0.500000 0.885776 T T T
0.916597 0.500000 0.934976 T T T
0.916597 0.500000 0.984176 T T T
0.041597 0.500000 0.664376 T T T
0.041597 0.500000 0.713576 T T T
0.041597 0.500000 0.762776 T T T
0.041597 0.500000 0.811976 T T T
0.041597 0.500000 0.861176 T T T
0.041597 0.500000 0.910376 T T T
0.041597 0.500000 0.959576 T T T
0.997670 0.500000 0.171310 F F F
0.997670 0.500000 0.256530 F F F
0.997670 0.500000 0.341750 F F F
0.997670 0.500000 0.426960 F F F
0.997670 0.500000 0.199720 F F F
0.997670 0.500000 0.284930 F F F
0.997670 0.500000 0.370150 F F F
0.997670 0.500000 0.455370 F F F
0.926240 0.500000 0.213920 F F F
0.926240 0.500000 0.299140 F F F
0.926240 0.500000 0.384350 F F F
0.926240 0.500000 0.469570 F F F
0.926240 0.500000 0.157110 F F F
0.926240 0.500000 0.242330 F F F
0.926240 0.500000 0.327540 F F F
0.926240 0.500000 0.412760 F F F
0.854810 0.500000 0.171310 F F F
0.854810 0.500000 0.256530 F F F
0.854810 0.500000 0.341750 F F F
0.854810 0.500000 0.426960 F F F
0.783380 0.500000 0.213920 F F F
0.783380 0.500000 0.299140 F F F
0.783380 0.500000 0.384350 F F F
0.783380 0.500000 0.469570 F F F
0.854810 0.500000 0.199720 F F F
0.854810 0.500000 0.284930 F F F
0.854810 0.500000 0.370150 F F F
0.854810 0.500000 0.455370 F F F
0.783380 0.500000 0.157110 F F F
0.783380 0.500000 0.242330 F F F
0.783380 0.500000 0.327540 F F F
0.783380 0.500000 0.412760 F F F
0.711960 0.500000 0.171310 F F F
0.711960 0.500000 0.256530 F F F
0.711960 0.500000 0.341750 F F F
0.711960 0.500000 0.426960 F F F
0.640530 0.500000 0.213920 F F F
0.640530 0.500000 0.299140 F F F
0.640530 0.500000 0.384350 F F F
0.640530 0.500000 0.469570 F F F
0.711960 0.500000 0.199720 F F F
0.711960 0.500000 0.284930 F F F
0.711960 0.500000 0.370150 F F F
0.711960 0.500000 0.455370 F F F
0.640530 0.500000 0.157110 F F F
0.640530 0.500000 0.242330 F F F
0.640530 0.500000 0.327540 F F F
0.640530 0.500000 0.412760 F F F
0.569100 0.500000 0.171310 F F F
0.569100 0.500000 0.256530 F F F
0.569100 0.500000 0.341750 F F F
0.569100 0.500000 0.426960 F F F
0.497670 0.500000 0.213920 F F F
0.497670 0.500000 0.299140 F F F
0.497670 0.500000 0.384350 F F F
0.497670 0.500000 0.469570 F F F
0.569100 0.500000 0.199720 F F F
0.569100 0.500000 0.284930 F F F
0.569100 0.500000 0.370150 F F F
0.569100 0.500000 0.455370 F F F
0.497670 0.500000 0.157110 F F F
0.497670 0.500000 0.242330 F F F
0.497670 0.500000 0.327540 F F F
0.497670 0.500000 0.412760 F F F
0.426240 0.500000 0.171310 F F F
0.426240 0.500000 0.256530 F F F
0.426240 0.500000 0.341750 F F F
0.426240 0.500000 0.426960 F F F
0.354810 0.500000 0.213920 F F F
0.354810 0.500000 0.299140 F F F
0.354810 0.500000 0.384350 F F F
0.354810 0.500000 0.469570 F F F
0.426240 0.500000 0.199720 F F F
0.426240 0.500000 0.284930 F F F
0.426240 0.500000 0.370150 F F F
0.426240 0.500000 0.455370 F F F
0.354810 0.500000 0.157110 F F F
0.354810 0.500000 0.242330 F F F
0.354810 0.500000 0.327540 F F F
0.354810 0.500000 0.412760 F F F
0.283380 0.500000 0.171310 F F F
0.283380 0.500000 0.256530 F F F
0.283380 0.500000 0.341750 F F F
0.283380 0.500000 0.426960 F F F
0.211960 0.500000 0.213920 F F F
0.211960 0.500000 0.299140 F F F
0.211960 0.500000 0.384350 F F F
0.211960 0.500000 0.469570 F F F
0.283380 0.500000 0.199720 F F F
0.283380 0.500000 0.284930 F F F
0.283380 0.500000 0.370150 F F F
0.283380 0.500000 0.455370 F F F
0.211960 0.500000 0.157110 F F F
0.211960 0.500000 0.242330 F F F
0.211960 0.500000 0.327540 F F F
0.211960 0.500000 0.412760 F F F
0.140530 0.500000 0.171310 F F F
0.140530 0.500000 0.256530 F F F
0.140530 0.500000 0.341750 F F F
0.140530 0.500000 0.426960 F F F
0.069100 0.500000 0.213920 F F F
0.069100 0.500000 0.299140 F F F
0.069100 0.500000 0.384350 F F F
0.069100 0.500000 0.469570 F F F
0.140530 0.500000 0.199720 F F F
0.140530 0.500000 0.284930 F F F
0.140530 0.500000 0.370150 F F F
0.140530 0.500000 0.455370 F F F
0.069100 0.500000 0.157110 F F F
0.069100 0.500000 0.242330 F F F
0.069100 0.500000 0.327540 F F F
0.069100 0.500000 0.412760 F F F
0.049850 0.091280 0.514598 T T T
0.105188 0.200904 0.514862 T T T
0.190260 0.475770 0.523179 T T T
0.170195 0.699979 0.517745 T T T
0.008196 0.911305 0.523382 T T T
0.289975 0.214674 0.521468 T T T
0.826102 0.264435 0.477490 T T T
0.731110 0.413940 0.491359 T T T
0.613561 0.610696 0.513894 T T T
0.880666 0.852995 0.483261 T T T
0.374654 0.947033 0.513483 T T T
0.497408 0.074612 0.543494 T T T
0.355710 0.281952 0.525231 T T T
0.649371 0.370813 0.535737 T T T
0.647901 0.872868 0.526500 T T T
0.270461 0.925471 0.551155 T T T
0.844052 0.018576 0.532117 T T T
0.742663 0.544310 0.531930 T T T
0.820300 0.588643 0.526269 T T T
0.735080 0.612797 0.556286 T T T
0.686476 0.744534 0.584470 T T T
0.874034 0.750111 0.561379 T T T
0.260987 0.022678 0.644055 T T T
0.658147 0.091703 0.608075 T T T
0.336184 0.246628 0.627752 T T T
0.007310 0.331648 0.660155 T T T
0.308130 0.807977 0.598439 T T T
0.964157 0.037004 0.658866 T T T
0.848330 0.050447 0.660754 T T T
0.912175 0.179841 0.659426 T T T
0.994164 0.769381 0.659550 T T T
0.749304 0.784180 0.598075 T T T
0.789783 0.947560 0.657815 T T T
0.083257 0.500000 0.688976 T T T
0.083257 0.500000 0.738176 T T T
0.083257 0.500000 0.787376 T T T
0.083257 0.500000 0.836576 T T T
0.083257 0.500000 0.885776 T T T
0.083257 0.500000 0.934976 T T T
0.083257 0.500000 0.984176 T T T
0.208257 0.500000 0.664376 T T T
0.208257 0.500000 0.713576 T T T
0.208257 0.500000 0.762776 T T T
0.208257 0.500000 0.811976 T T T
0.208257 0.500000 0.861176 T T T
0.208257 0.500000 0.910376 T T T
0.208257 0.500000 0.959576 T T T
0.166597 0.500000 0.688976 T T T
0.166597 0.500000 0.738176 T T T
0.166597 0.500000 0.787376 T T T
0.166597 0.500000 0.836576 T T T
0.166597 0.500000 0.885776 T T T
0.166597 0.500000 0.934976 T T T
0.166597 0.500000 0.984176 T T T
0.291597 0.500000 0.664376 T T T
0.291597 0.500000 0.713576 T T T
0.291597 0.500000 0.762776 T T T
0.291597 0.500000 0.811976 T T T
0.291597 0.500000 0.861176 T T T
0.291597 0.500000 0.910376 T T T
0.291597 0.500000 0.959576 T T T
0.333257 0.500000 0.688976 T T T
0.333257 0.500000 0.738176 T T T
0.049977 0.500000 0.003926 T T T
0.199867 0.500000 0.003926 T T T
0.300107 0.500000 0.003946 T T T
0.449867 0.500000 0.003926 T T T
0.550107 0.500000 0.003946 T T T
0.699867 0.500000 0.003926 T T T
0.800107 0.500000 0.003946 T T T
0.949867 0.500000 0.003926 T T T
0.926100 0.500000 0.134310 F F F
0.783520 0.500000 0.134310 F F F
0.640670 0.500000 0.134310 F F F
0.497810 0.500000 0.134310 F F F
0.354950 0.500000 0.134310 F F F
0.212100 0.500000 0.134310 F F F
0.068960 0.500000 0.134310 F F F
0.477630 0.074293 0.522226 T T T
0.515769 0.489170 0.549041 T T T
0.255343 0.799559 0.497197 T T T
0.416170 0.915521 0.497109 T T T
0.567248 0.204604 0.509953 T T T
0.782515 0.339331 0.484056 T T T
0.854525 0.553162 0.544981 T T T
0.814575 0.712207 0.517542 T T T
0.984368 0.749058 0.483504 T T T
0.448857 0.135898 0.592406 T T T
0.339593 0.708077 0.589213 T T T
0.021793 0.799696 0.559469 T T T
0.277222 0.813307 0.553483 T T T
0.556202 0.111095 0.552421 T T T
0.725196 0.347069 0.560646 T T T
0.851686 0.465602 0.605321 T T T
0.759141 0.849269 0.554442 T T T
0.755625 0.947866 0.562859 T T T
0.525345 0.011758 0.644054 T T T
0.115331 0.253403 0.623197 T T T
0.481504 0.320480 0.614315 T T T
0.268598 0.326694 0.645213 T T T
0.486642 0.741883 0.656274 T T T
0.556193 0.045080 0.637024 T T T
0.799759 0.368275 0.659718 T T T
0.837540 0.508051 0.648857 T T T
0.550092 0.583288 0.651606 T T T
0.823823 0.822842 0.654371 T T T
