search
1.0
17.131700 0.000000 0.000000
0.000000 10.000000 0.000000
0.000000 0.000000 50.000000
C H 
227 73 
Selective dynamics
Direct
0.181560 0.500000 0.787164 T T T
0.181560 0.500000 0.836364 T T T
0.181560 0.500000 0.885564 T T T
0.181560 0.500000 0.934764 T T T
0.181560 0.500000 0.983964 T T T
0.306560 0.500000 0.664164 T T T
0.306560 0.500000 0.713364 T T T
0.306560 0.500000 0.762564 T T T
0.306560 0.500000 0.811764 T T T
0.306560 0.500000 0.860964 T T T
0.306560 0.500000 0.910164 T T T
0.306560 0.500000 0.959364 T T T
0.264900 0.500000 0.688764 T T T
0.264900 0.500000 0.737964 T T T
0.264900 0.500000 0.787164 T T T
0.264900 0.500000 0.836364 T T T
0.264900 0.500000 0.885564 T T T
0.264900 0.500000 0.934764 T T T
0.264900 0.500000 0.983964 T T T
0.389900 0.500000 0.664164 T T T
0.389900 0.500000 0.713364 T T T
0.389900 0.500000 0.762564 T T T
0.389900 0.500000 0.811764 T T T
0.389900 0.500000 0.860964 T T T
0.389900 0.500000 0.910164 T T T
0.389900 0.500000 0.959364 T T T
0.431560 0.500000 0.688764 T T T
0.431560 0.500000 0.737964 T T T
0.431560 0.500000 0.787164 T T T
0.431560 0.500000 0.836364 T T T
0.431560 0.500000 0.885564 T T T
0.431560 0.500000 0.934764 T T T
0.431560 0.500000 0.983964 T T T
0.556560 0.500000 0.664164 T T T
0.556560 0.500000 0.713364 T T T
0.556560 0.500000 0.762564 T T T
0.556560 0.500000 0.811764 T T T
0.556560 0.500000 0.860964 T T T
0.556560 0.500000 0.910164 T T T
0.556560 0.500000 0.959364 T T T
0.514900 0.500000 0.688764 T T T
0.514900 0.500000 0.737964 T T T
0.514900 0.500000 0.787164 T T T
0.514900 0.500000 0.836364 T T T
0.514900 0.500000 0.885564 T T T
0.514900 0.500000 0.934764 T T T
0.514900 0.500000 0.983964 T T T
0.639900 0.500000 0.664164 T T T
0.639900 0.500000 0.713364 T T T
0.639900 0.500000 0.762564 T T T
0.639900 0.500000 0.811764 T T T
0.639900 0.500000 0.860964 T T T
0.639900 0.500000 0.910164 T T T
0.639900 0.500000 0.959364 T T T
0.681560 0.500000 0.688764 T T T
0.681560 0.500000 0.737964 T T T
0.681560 0.500000 0.787164 T T T
0.681560 0.500000 0.836364 T T T
0.681560 0.500000 0.885564 T T T
0.681560 0.500000 0.934764 T T T
0.681560 0.500000 0.983964 T T T
0.806560 0.500000 0.664164 T T T
0.806560 0.500000 0.713364 T T T
0.806560 0.500000 0.762564 T T T
0.806560 0.500000 0.811764 T T T
0.806560 0.500000 0.860964 T T T
0.806560 0.500000 0.910164 T T T
0.806560 0.500000 0.959364 T T T
0.764900 0.500000 0.688764 T T T
0.764900 0.500000 0.737964 T T T
0.764900 0.500000 0.787164 T T T
0.764900 0.500000 0.836364 T T T
0.764900 0.500000 0.885564 T T T
0.764900 0.500000 0.934764 T T T
0.764900 0.500000 0.983964 T T T
0.889900 0.500000 0.664164 T T T
0.889900 0.500000 0.713364 T T T
0.889900 0.500000 0.762564 T T T
0.889900 0.500000 0.811764 T T T
0.889900 0.500000 0.860964 T T T
0.889900 0.500000 0.910164 T T T
0.889900 0.500000 0.959364 T T T
0.997670 0.500000 0.171310 F F F
0.997670 0.500000 0.256530 F F F
0.997670 0.500000 0.341750 F F F
0.997670 0.500000 0.426960 F F F
0.997670 0.500000 0.199720 F F F
0.997670 0.500000 0.284930 F F F
0.997670 0.500000 0.370150 F F F
0.997670 0.500000 0.455370 F F F
0.926240 0.500000 0.213920 F F F
0.926240 0.500000 0.299140 F F F
0.926240 0.500000 0.384350 F F F
0.926240 0.500000 0.469570 F F F
0.926240 0.500000 0.157110 F F F
0.926240 0.500000 0.242330 F F F
0.926240 0.500000 0.327540 F F F
0.926240 0.500000 0.412760 F F F
0.854810 0.500000 0.171310 F F F
0.854810 0.500000 0.256530 F F F
0.854810 0.500000 0.341750 F F F
0.854810 0.500000 0.426960 F F F
0.783380 0.500000 0.213920 F F F
0.783380 0.500000 0.299140 F F F
0.783380 0.500000 0.384350 F F F
0.783380 0.500000 0.469570 F F F
0.854810 0.500000 0.199720 F F F
0.854810 0.500000 0.284930 F F F
0.854810 0.500000 0.370150 F F F
0.854810 0.500000 0.455370 F F F
0.783380 0.500000 0.157110 F F F
0.783380 0.500000 0.242330 F F F
0.783380 0.500000 0.327540 F F F
0.783380 0.500000 0.412760 F F F
0.711960 0.500000 0.171310 F F F
0.711960 0.500000 0.256530 F F F
0.711960 0.500000 0.341750 F F F
0.711960 0.500000 0.426960 F F F
0.640530 0.500000 0.213920 F F F
0.640530 0.500000 0.299140 F F F
0.640530 0.500000 0.384350 F F F
0.640530 0.500000 0.469570 F F F
0.711960 0.500000 0.199720 F F F
0.711960 0.500000 0.284930 F F F
0.711960 0.500000 0.370150 F F F
0.711960 0.500000 0.455370 F F F
0.640530 0.500000 0.157110 F F F
0.640530 0.500000 0.242330 F F F
0.640530 0.500000 0.327540 F F F
0.640530 0.500000 0.412760 F F F
0.569100 0.500000 0.171310 F F F
0.569100 0.500000 0.256530 F F F
0.569100 0.500000 0.341750 F F F
0.569100 0.500000 0.426960 F F F
0.497670 0.500000 0.213920 F F F
0.497670 0.500000 0.299140 F F F
0.497670 0.500000 0.384350 F F F
0.497670 0.500000 0.469570 F F F
0.569100 0.500000 0.199720 F F F
0.569100 0.500000 0.284930 F F F
0.569100 0.500000 0.370150 F F F
0.569100 0.500000 0.455370 F F F
0.497670 0.500000 0.157110 F F F
0.497670 0.500000 0.242330 F F F
0.497670 0.500000 0.327540 F F F
0.497670 0.500000 0.412760 F F F
0.426240 0.500000 0.171310 F F F
0.426240 0.500000 0.256530 F F F
0.426240 0.500000 0.341750 F F F
0.426240 0.500000 0.426960 F F F
0.354810 0.500000 0.213920 F F F
0.354810 0.500000 0.299140 F F F
0.354810 0.500000 0.384350 F F F
0.354810 0.500000 0.469570 F F F
0.426240 0.500000 0.199720 F F F
0.426240 0.500000 0.284930 F F F
0.426240 0.500000 0.370150 F F F
0.426240 0.500000 0.455370 F F F
0.354810 0.500000 0.157110 F F F
0.354810 0.500000 0.242330 F F F
0.354810 0.500000 0.327540 F F F
0.354810 0.500000 0.412760 F F F
0.283380 0.500000 0.171310 F F F
0.283380 0.500000 0.256530 F F F
0.283380 0.500000 0.341750 F F F
0.283380 0.500000 0.426960 F F F
0.211960 0.500000 0.213920 F F F
0.211960 0.500000 0.299140 F F F
0.211960 0.500000 0.384350 F F F
0.211960 0.500000 0.469570 F F F
0.283380 0.500000 0.199720 F F F
0.283380 0.500000 0.284930 F F F
0.283380 0.500000 0.370150 F F F
0.283380 0.500000 0.455370 F F F
0.211960 0.500000 0.157110 F F F
0.211960 0.500000 0.242330 F F F
0.211960 0.500000 0.327540 F F F
0.211960 0.500000 0.412760 F F F
0.140530 0.500000 0.171310 F F F
0.140530 0.500000 0.256530 F F F
0.140530 0.500000 0.341750 F F F
0.140530 0.500000 0.426960 F F F
0.069100 0.500000 0.213920 F F F
0.069100 0.500000 0.299140 F F F
0.069100 0.500000 0.384350 F F F
0.069100 0.500000 0.469570 F F F
0.140530 0.500000 0.199720 F F F
0.140530 0.500000 0.284930 F F F
0.140530 0.500000 0.370150 F F F
0.140530 0.500000 0.455370 F F F
0.069100 0.500000 0.157110 F F F
0.069100 0.500000 0.242330 F F F
0.069100 0.500000 0.327540 F F F
0.069100 0.500000 0.412760 F F F
0.032752 0.187714 0.540886 T T T
0.231180 0.824281 0.469997 T T T
0.859811 0.829587 0.469999 T T T
0.914560 0.131115 0.470000 T T T
0.713525 0.482616 0.485982 T T T
0.636638 0.874222 0.470000 T T T
0.348844 0.883099 0.519459 T T T
0.439756 0.639243 0.500810 T T T
0.973441 0.586364 0.477914 T T T
0.554372 0.772986 0.508216 T T T
0.898510 0.945164 0.470000 T T T
0.148998 0.887127 0.589716 T T T
0.231581 0.869815 0.582862 T T T
0.678372 0.728542 0.552960 T T T
0.731802 0.344901 0.531639 T T T
0.249785 0.703644 0.638832 T T T
0.804646 0.061223 0.571051 T T T
0.208124 0.778047 0.556748 T T T
0.523188 0.957081 0.648808 T T T
0.130670 0.400060 0.506120 T T T
0.203481 0.378542 0.492501 T T T
0.577154 0.313481 0.485128 T T T
0.580960 0.182938 0.561760 T T T
0.856717 0.145360 0.662485 T T T
0.329800 0.789622 0.646068 T T T
0.169638 0.806837 0.637939 T T T
0.211581 0.832375 0.668063 T T T
0.577094 0.625453 0.503409 T T T
0.598302 0.568403 0.646572 T T T
0.212893 0.609660 0.647172 T T T
0.530653 0.130043 0.537183 T T T
0.298110 0.249132 0.627589 T T T
0.781227 0.874902 0.566504 T T T
0.931560 0.500000 0.688764 T T T
0.931560 0.500000 0.737964 T T T
0.931560 0.500000 0.787164 T T T
0.931560 0.500000 0.836364 T T T
0.931560 0.500000 0.885564 T T T
0.931560 0.500000 0.934764 T T T
0.931560 0.500000 0.983964 T T T
0.056560 0.500000 0.664164 T T T
0.056560 0.500000 0.713364 T T T
0.056560 0.500000 0.762564 T T T
0.056560 0.500000 0.811764 T T T
0.056560 0.500000 0.860964 T T T
0.056560 0.500000 0.910164 T T T
0.056560 0.500000 0.959364 T T T
0.014900 0.500000 0.688764 T T T
0.014900 0.500000 0.737964 T T T
0.014900 0.500000 0.787164 T T T
0.014900 0.500000 0.836364 T T T
0.014900 0.500000 0.885564 T T T
0.014900 0.500000 0.934764 T T T
0.014900 0.500000 0.983964 T T T
0.139900 0.500000 0.664164 T T T
0.139900 0.500000 0.713364 T T T
0.139900 0.500000 0.762564 T T T
0.139900 0.500000 0.811764 T T T
0.139900 0.500000 0.860964 T T T
0.139900 0.500000 0.910164 T T T
0.139900 0.500000 0.959364 T T T
0.181560 0.500000 0.688764 T T T
0.181560 0.500000 0.737964 T T T
0.898280 0.500000 0.003714 T T T
0.048170 0.500000 0.003714 T T T
0.148410 0.500000 0.003734 T T T
0.298170 0.500000 0.003714 T T T
0.398410 0.500000 0.003734 T T T
0.548170 0.500000 0.003714 T T T
0.648410 0.500000 0.003734 T T T
0.798170 0.500000 0.003714 T T T
0.926100 0.500000 0.134310 F F F
0.783520 0.500000 0.134310 F F F
0.640670 0.500000 0.134310 F F F
0.497810 0.500000 0.134310 F F F
0.354950 0.500000 0.134310 F F F
0.212100 0.500000 0.134310 F F F
0.068960 0.500000 0.134310 F F F
0.829568 0.339238 0.586699 T T T
0.025204 0.451977 0.471895 T T T
0.058664 0.655907 0.539030 T T T
0.771108 0.563091 0.561494 T T T
0.688873 0.230341 0.497051 T T T
0.474528 0.365523 0.584832 T T T
0.849261 0.478396 0.476641 T T T
0.174663 0.315523 0.471675 T T T
0.754939 0.475541 0.557876 T T T
0.882938 0.734361 0.587308 T T T
0.468304 0.188382 0.583067 T T T
0.424244 0.853041 0.495257 T T T
0.363033 0.941100 0.637463 T T T
0.447410 0.879117 0.596169 T T T
0.255325 0.858526 0.531012 T T T
0.371544 0.921309 0.499338 T T T
0.266848 0.169609 0.557366 T T T
0.804479 0.769282 0.529916 T T T
0.160581 0.136487 0.578666 T T T
0.476133 0.475337 0.596567 T T T
0.952875 0.743550 0.656978 T T T
0.180371 0.910210 0.552519 T T T
0.886086 0.344088 0.565416 T T T
0.225970 0.832737 0.646139 T T T
0.455224 0.871948 0.644123 T T T
0.979948 0.399841 0.589059 T T T
0.802623 0.309816 0.599376 T T T
0.420445 0.532959 0.531890 T T T
