search
1.0
17.131700 0.000000 0.000000
0.000000 10.000000 0.000000
0.000000 0.000000 50.000000
C H 
227 73 
Selective dynamics
Direct
0.314016 0.500000 0.803505 T T T
0.314016 0.500000 0.852705 T T T
0.314016 0.500000 0.901905 T T T
0.314016 0.500000 0.951105 T T T
0.314016 0.500000 0.000305 T T T
0.439016 0.500000 0.680505 T T T
0.439016 0.500000 0.729705 T T T
0.439016 0.500000 0.778905 T T T
0.439016 0.500000 0.828105 T T T
0.439016 0.500000 0.877305 T T T
0.439016 0.500000 0.926505 T T T
0.439016 0.500000 0.975705 T T T
0.397356 0.500000 0.705105 T T T
0.397356 0.500000 0.754305 T T T
0.397356 0.500000 0.803505 T T T
0.397356 0.500000 0.852705 T T T
0.397356 0.500000 0.901905 T T T
0.397356 0.500000 0.951105 T T T
0.397356 0.500000 0.000305 T T T
0.522356 0.500000 0.680505 T T T
0.522356 0.500000 0.729705 T T T
0.522356 0.500000 0.778905 T T T
0.522356 0.500000 0.828105 T T T
0.522356 0.500000 0.877305 T T T
0.522356 0.500000 0.926505 T T T
0.522356 0.500000 0.975705 T T T
0.564016 0.500000 0.705105 T T T
0.564016 0.500000 0.754305 T T T
0.564016 0.500000 0.803505 T T T
0.564016 0.500000 0.852705 T T T
0.564016 0.500000 0.901905 T T T
0.564016 0.500000 0.951105 T T T
0.564016 0.500000 0.000305 T T T
0.689016 0.500000 0.680505 T T T
0.689016 0.500000 0.729705 T T T
0.689016 0.500000 0.778905 T T T
0.689016 0.500000 0.828105 T T T
0.689016 0.500000 0.877305 T T T
0.689016 0.500000 0.926505 T T T
0.689016 0.500000 0.975705 T T T
0.647356 0.500000 0.705105 T T T
0.647356 0.500000 0.754305 T T T
0.647356 0.500000 0.803505 T T T
0.647356 0.500000 0.852705 T T T
0.647356 0.500000 0.901905 T T T
0.647356 0.500000 0.951105 T T T
0.647356 0.500000 0.000305 T T T
0.772356 0.500000 0.680505 T T T
0.772356 0.500000 0.729705 T T T
0.772356 0.500000 0.778905 T T T
0.772356 0.500000 0.828105 T T T
0.772356 0.500000 0.877305 T T T
0.772356 0.500000 0.926505 T T T
0.772356 0.500000 0.975705 T T T
0.814016 0.500000 0.705105 T T T
0.814016 0.500000 0.754305 T T T
0.814016 0.500000 0.803505 T T T
0.814016 0.500000 0.852705 T T T
0.814016 0.500000 0.901905 T T T
0.814016 0.500000 0.951105 T T T
0.814016 0.500000 0.000305 T T T
0.939016 0.500000 0.680505 T T T
0.939016 0.500000 0.729705 T T T
0.939016 0.500000 0.778905 T T T
0.939016 0.500000 0.828105 T T T
0.939016 0.500000 0.877305 T T T
0.939016 0.500000 0.926505 T T T
0.939016 0.500000 0.975705 T T T
0.897356 0.500000 0.705105 T T T
0.897356 0.500000 0.754305 T T T
0.897356 0.500000 0.803505 T T T
0.897356 0.500000 0.852705 T T T
0.897356 0.500000 0.901905 T T T
0.897356 0.500000 0.951105 T T T
0.897356 0.500000 0.000305 T T T
0.022356 0.500000 0.680505 T T T
0.022356 0.500000 0.729705 T T T
0.022356 0.500000 0.778905 T T T
0.022356 0.500000 0.828105 T T T
0.022356 0.500000 0.877305 T T T
0.022356 0.500000 0.926505 T T T
0.022356 0.500000 0.975705 T T T
0.997670 0.500000 0.171310 F F F
0.997670 0.500000 0.256530 F F F
0.997670 0.500000 0.341750 F F F
0.997670 0.500000 0.426960 F F F
0.997670 0.500000 0.199720 F F F
0.997670 0.500000 0.284930 F F F
0.997670 0.500000 0.370150 F F F
0.997670 0.500000 0.455370 F F F
0.926240 0.500000 0.213920 F F F
0.926240 0.500000 0.299140 F F F
0.926240 0.500000 0.384350 F F F
0.926240 0.500000 0.469570 F F F
0.926240 0.500000 0.157110 F F F
0.926240 0.500000 0.242330 F F F
0.926240 0.500000 0.327540 F F F
0.926240 0.500000 0.412760 F F F
0.854810 0.500000 0.171310 F F F
0.854810 0.500000 0.256530 F F F
0.854810 0.500000 0.341750 F F F
0.854810 0.500000 0.426960 F F F
0.783380 0.500000 0.213920 F F F
0.783380 0.500000 0.299140 F F F
0.783380 0.500000 0.384350 F F F
0.783380 0.500000 0.469570 F F F
0.854810 0.500000 0.199720 F F F
0.854810 0.500000 0.284930 F F F
0.854810 0.500000 0.370150 F F F
0.854810 0.500000 0.455370 F F F
0.783380 0.500000 0.157110 F F F
0.783380 0.500000 0.242330 F F F
0.783380 0.500000 0.327540 F F F
0.783380 0.500000 0.412760 F F F
0.711960 0.500000 0.171310 F F F
0.711960 0.500000 0.256530 F F F
0.711960 0.500000 0.341750 F F F
0.711960 0.500000 0.426960 F F F
0.640530 0.500000 0.213920 F F F
0.640530 0.500000 0.299140 F F F
0.640530 0.500000 0.384350 F F F
0.640530 0.500000 0.469570 F F F
0.711960 0.500000 0.199720 F F F
0.711960 0.500000 0.284930 F F F
0.711960 0.500000 0.370150 F F F
0.711960 0.500000 0.455370 F F F
0.640530 0.500000 0.157110 F F F
0.640530 0.500000 0.242330 F F F
0.640530 0.500000 0.327540 F F F
0.640530 0.500000 0.412760 F F F
0.569100 0.500000 0.171310 F F F
0.569100 0.500000 0.256530 F F F
0.569100 0.500000 0.341750 F F F
0.569100 0.500000 0.426960 F F F
0.497670 0.500000 0.213920 F F F
0.497670 0.500000 0.299140 F F F
0.497670 0.500000 0.384350 F F F
0.497670 0.500000 0.469570 F F F
0.569100 0.500000 0.199720 F F F
0.569100 0.500000 0.284930 F F F
0.569100 0.500000 0.370150 F F F
0.569100 0.500000 0.455370 F F F
0.497670 0.500000 0.157110 F F F
0.497670 0.500000 0.242330 F F F
0.497670 0.500000 0.327540 F F F
0.497670 0.500000 0.412760 F F F
0.426240 0.500000 0.171310 F F F
0.426240 0.500000 0.256530 F F F
0.426240 0.500000 0.341750 F F F
0.426240 0.500000 0.426960 F F F
0.354810 0.500000 0.213920 F F F
0.354810 0.500000 0.299140 F F F
0.354810 0.500000 0.384350 F F F
0.354810 0.500000 0.469570 F F F
0.426240 0.500000 0.199720 F F F
0.426240 0.500000 0.284930 F F F
0.426240 0.500000 0.370150 F F F
0.426240 0.500000 0.455370 F F F
0.354810 0.500000 0.157110 F F F
0.354810 0.500000 0.242330 F F F
0.354810 0.500000 0.327540 F F F
0.354810 0.500000 0.412760 F F F
0.283380 0.500000 0.171310 F F F
0.283380 0.500000 0.256530 F F F
0.283380 0.500000 0.341750 F F F
0.283380 0.500000 0.426960 F F F
0.211960 0.500000 0.213920 F F F
0.211960 0.500000 0.299140 F F F
0.211960 0.500000 0.384350 F F F
0.211960 0.500000 0.469570 F F F
0.283380 0.500000 0.199720 F F F
0.283380 0.500000 0.284930 F F F
0.283380 0.500000 0.370150 F F F
0.283380 0.500000 0.455370 F F F
0.211960 0.500000 0.157110 F F F
0.211960 0.500000 0.242330 F F F
0.211960 0.500000 0.327540 F F F
0.211960 0.500000 0.412760 F F F
0.140530 0.500000 0.171310 F F F
0.140530 0.500000 0.256530 F F F
0.140530 0.500000 0.341750 F F F
0.140530 0.500000 0.426960 F F F
0.069100 0.500000 0.213920 F F F
0.069100 0.500000 0.299140 F F F
0.069100 0.500000 0.384350 F F F
0.069100 0.500000 0.469570 F F F
0.140530 0.500000 0.199720 F F F
0.140530 0.500000 0.284930 F F F
0.140530 0.500000 0.370150 F F F
0.140530 0.500000 0.455370 F F F
0.069100 0.500000 0.157110 F F F
0.069100 0.500000 0.242330 F F F
0.069100 0.500000 0.327540 F F F
0.069100 0.500000 0.412760 F F F
0.409357 0.046330 0.525902 T T T
0.931887 0.076125 0.481421 T T T
0.466965 0.259207 0.469447 T T T
0.236713 0.651268 0.471201 T T T
0.486637 0.887121 0.487303 T T T
0.917134 0.973025 0.494655 T T T
0.192273 0.997950 0.504658 T T T
0.006229 0.469499 0.481501 T T T
0.663214 0.101746 0.516047 T T T
0.704787 0.421344 0.485297 T T T
0.215482 0.036866 0.472627 T T T
0.230297 0.450490 0.549072 T T T
0.078737 0.215840 0.545338 T T T
0.522476 0.190449 0.473556 T T T
0.106293 0.655861 0.574709 T T T
0.210693 0.691037 0.579329 T T T
0.794420 0.016780 0.524990 T T T
0.084690 0.676689 0.535085 T T T
0.815674 0.658987 0.541032 T T T
0.352396 0.765899 0.534705 T T T
0.725601 0.932918 0.473218 T T T
0.679692 0.865165 0.507288 T T T
0.119740 0.053211 0.678974 T T T
0.839114 0.059396 0.624777 T T T
0.243404 0.129372 0.678975 T T T
0.255122 0.936538 0.598310 T T T
0.839627 0.933942 0.648068 T T T
0.917130 0.061357 0.545721 T T T
0.614944 0.160345 0.639391 T T T
0.955591 0.204968 0.599791 T T T
0.184256 0.491420 0.567222 T T T
0.097270 0.684625 0.672984 T T T
0.324653 0.856393 0.559915 T T T
0.064016 0.500000 0.705105 T T T
0.064016 0.500000 0.754305 T T T
0.064016 0.500000 0.803505 T T T
0.064016 0.500000 0.852705 T T T
0.064016 0.500000 0.901905 T T T
0.064016 0.500000 0.951105 T T T
0.064016 0.500000 0.000305 T T T
0.189016 0.500000 0.680505 T T T
0.189016 0.500000 0.729705 T T T
0.189016 0.500000 0.778905 T T T
0.189016 0.500000 0.828105 T T T
0.189016 0.500000 0.877305 T T T
0.189016 0.500000 0.926505 T T T
0.189016 0.500000 0.975705 T T T
0.147356 0.500000 0.705105 T T T
0.147356 0.500000 0.754305 T T T
0.147356 0.500000 0.803505 T T T
0.147356 0.500000 0.852705 T T T
0.147356 0.500000 0.901905 T T T
0.147356 0.500000 0.951105 T T T
0.147356 0.500000 0.000305 T T T
0.272356 0.500000 0.680505 T T T
0.272356 0.500000 0.729705 T T T
0.272356 0.500000 0.778905 T T T
0.272356 0.500000 0.828105 T T T
0.272356 0.500000 0.877305 T T T
0.272356 0.500000 0.926505 T T T
0.272356 0.500000 0.975705 T T T
0.314016 0.500000 0.705105 T T T
0.314016 0.500000 0.754305 T T T
0.030736 0.500000 0.020055 T T T
0.180626 0.500000 0.020055 T T T
0.280866 0.500000 0.020075 T T T
0.430626 0.500000 0.020055 T T T
0.530866 0.500000 0.020075 T T T
0.680626 0.500000 0.020055 T T T
0.780866 0.500000 0.020075 T T T
0.930626 0.500000 0.020055 T T T
0.926100 0.500000 0.134310 F F F
0.783520 0.500000 0.134310 F F F
0.640670 0.500000 0.134310 F F F
0.497810 0.500000 0.134310 F F F
0.354950 0.500000 0.134310 F F F
0.212100 0.500000 0.134310 F F F
0.068960 0.500000 0.134310 F F F
0.204368 0.189012 0.508354 T T T
0.148575 0.088450 0.477668 T T T
0.180670 0.348786 0.536158 T T T
0.266530 0.135582 0.532855 T T T
0.472341 0.607997 0.475152 T T T
0.964772 0.656805 0.473240 T T T
0.581955 0.332298 0.502048 T T T
0.626531 0.624703 0.470297 T T T
0.838663 0.262611 0.470000 T T T
0.304188 0.517491 0.547538 T T T
0.557087 0.043178 0.575080 T T T
0.052735 0.202557 0.590920 T T T
0.190926 0.645863 0.547995 T T T
0.764899 0.603077 0.609461 T T T
0.148525 0.735692 0.588951 T T T
0.515819 0.344166 0.570503 T T T
0.702305 0.988953 0.632248 T T T
0.472812 0.741357 0.562777 T T T
0.671229 0.061428 0.678975 T T T
0.267025 0.073805 0.631414 T T T
0.255595 0.314657 0.603581 T T T
0.335952 0.609858 0.641720 T T T
0.859039 0.110736 0.678741 T T T
0.140270 0.835880 0.678910 T T T
0.850921 0.074427 0.662512 T T T
0.159215 0.164260 0.644020 T T T
0.607062 0.110875 0.559108 T T T
0.925298 0.324846 0.605837 T T T
