search
1.0
17.131700 0.000000 0.000000
0.000000 10.000000 0.000000
0.000000 0.000000 50.000000
C H 
227 73 
Selective dynamics
Direct
0.112560 0.500000 0.812748 T T T
0.112560 0.500000 0.861948 T T T
0.112560 0.500000 0.911148 T T T
0.112560 0.500000 0.960348 T T T
0.112560 0.500000 0.009548 T T T
0.237560 0.500000 0.689748 T T T
0.237560 0.500000 0.738948 T T T
0.237560 0.500000 0.788148 T T T
0.237560 0.500000 0.837348 T T T
0.237560 0.500000 0.886548 T T T
0.237560 0.500000 0.935748 T T T
0.237560 0.500000 0.984948 T T T
0.195900 0.500000 0.714348 T T T
0.195900 0.500000 0.763548 T T T
0.195900 0.500000 0.812748 T T T
0.195900 0.500000 0.861948 T T T
0.195900 0.500000 0.911148 T T T
0.195900 0.500000 0.960348 T T T
0.195900 0.500000 0.009548 T T T
0.320900 0.500000 0.689748 T T T
0.320900 0.500000 0.738948 T T T
0.320900 0.500000 0.788148 T T T
0.320900 0.500000 0.837348 T T T
0.320900 0.500000 0.886548 T T T
0.320900 0.500000 0.935748 T T T
0.320900 0.500000 0.984948 T T T
0.362560 0.500000 0.714348 T T T
0.362560 0.500000 0.763548 T T T
0.362560 0.500000 0.812748 T T T
0.362560 0.500000 0.861948 T T T
0.362560 0.500000 0.911148 T T T
0.362560 0.500000 0.960348 T T T
0.362560 0.500000 0.009548 T T T
0.487560 0.500000 0.689748 T T T
0.487560 0.500000 0.738948 T T T
0.487560 0.500000 0.788148 T T T
0.487560 0.500000 0.837348 T T T
0.487560 0.500000 0.886548 T T T
0.487560 0.500000 0.935748 T T T
0.487560 0.500000 0.984948 T T T
0.445900 0.500000 0.714348 T T T
0.445900 0.500000 0.763548 T T T
0.445900 0.500000 0.812748 T T T
0.445900 0.500000 0.861948 T T T
0.445900 0.500000 0.911148 T T T
0.445900 0.500000 0.960348 T T T
0.445900 0.500000 0.009548 T T T
0.570900 0.500000 0.689748 T T T
0.570900 0.500000 0.738948 T T T
0.570900 0.500000 0.788148 T T T
0.570900 0.500000 0.837348 T T T
0.570900 0.500000 0.886548 T T T
0.570900 0.500000 0.935748 T T T
0.570900 0.500000 0.984948 T T T
0.612560 0.500000 0.714348 T T T
0.612560 0.500000 0.763548 T T T
0.612560 0.500000 0.812748 T T T
0.612560 0.500000 0.861948 T T T
0.612560 0.500000 0.911148 T T T
0.612560 0.500000 0.960348 T T T
0.612560 0.500000 0.009548 T T T
0.737560 0.500000 0.689748 T T T
0.737560 0.500000 0.738948 T T T
0.737560 0.500000 0.788148 T T T
0.737560 0.500000 0.837348 T T T
0.737560 0.500000 0.886548 T T T
0.737560 0.500000 0.935748 T T T
0.737560 0.500000 0.984948 T T T
0.695900 0.500000 0.714348 T T T
0.695900 0.500000 0.763548 T T T
0.695900 0.500000 0.812748 T T T
0.695900 0.500000 0.861948 T T T
0.695900 0.500000 0.911148 T T T
0.695900 0.500000 0.960348 T T T
0.695900 0.500000 0.009548 T T T
0.820900 0.500000 0.689748 T T T
0.820900 0.500000 0.738948 T T T
0.820900 0.500000 0.788148 T T T
0.820900 0.500000 0.837348 T T T
0.820900 0.500000 0.886548 T T T
0.820900 0.500000 0.935748 T T T
0.820900 0.500000 0.984948 T T T
0.997670 0.500000 0.171310 F F F
0.997670 0.500000 0.256530 F F F
0.997670 0.500000 0.341750 F F F
0.997670 0.500000 0.426960 F F F
0.997670 0.500000 0.199720 F F F
0.997670 0.500000 0.284930 F F F
0.997670 0.500000 0.370150 F F F
0.997670 0.500000 0.455370 F F F
0.926240 0.500000 0.213920 F F F
0.926240 0.500000 0.299140 F F F
0.926240 0.500000 0.384350 F F F
0.926240 0.500000 0.469570 F F F
0.926240 0.500000 0.157110 F F F
0.926240 0.500000 0.242330 F F F
0.926240 0.500000 0.327540 F F F
0.926240 0.500000 0.412760 F F F
0.854810 0.500000 0.171310 F F F
0.854810 0.500000 0.256530 F F F
0.854810 0.500000 0.341750 F F F
0.854810 0.500000 0.426960 F F F
0.783380 0.500000 0.213920 F F F
0.783380 0.500000 0.299140 F F F
0.783380 0.500000 0.384350 F F F
0.783380 0.500000 0.469570 F F F
0.854810 0.500000 0.199720 F F F
0.854810 0.500000 0.284930 F F F
0.854810 0.500000 0.370150 F F F
0.854810 0.500000 0.455370 F F F
0.783380 0.500000 0.157110 F F F
0.783380 0.500000 0.242330 F F F
0.783380 0.500000 0.327540 F F F
0.783380 0.500000 0.412760 F F F
0.711960 0.500000 0.171310 F F F
0.711960 0.500000 0.256530 F F F
0.711960 0.500000 0.341750 F F F
0.711960 0.500000 0.426960 F F F
0.640530 0.500000 0.213920 F F F
0.640530 0.500000 0.299140 F F F
0.640530 0.500000 0.384350 F F F
0.640530 0.500000 0.469570 F F F
0.711960 0.500000 0.199720 F F F
0.711960 0.500000 0.284930 F F F
0.711960 0.500000 0.370150 F F F
0.711960 0.500000 0.455370 F F F
0.640530 0.500000 0.157110 F F F
0.640530 0.500000 0.242330 F F F
0.640530 0.500000 0.327540 F F F
0.640530 0.500000 0.412760 F F F
0.569100 0.500000 0.171310 F F F
0.569100 0.500000 0.256530 F F F
0.569100 0.500000 0.341750 F F F
0.569100 0.500000 0.426960 F F F
0.497670 0.500000 0.213920 F F F
0.497670 0.500000 0.299140 F F F
0.497670 0.500000 0.384350 F F F
0.497670 0.500000 0.469570 F F F
0.569100 0.500000 0.199720 F F F
0.569100 0.500000 0.284930 F F F
0.569100 0.500000 0.370150 F F F
0.569100 0.500000 0.455370 F F F
0.497670 0.500000 0.157110 F F F
0.497670 0.500000 0.242330 F F F
0.497670 0.500000 0.327540 F F F
0.497670 0.500000 0.412760 F F F
0.426240 0.500000 0.171310 F F F
0.426240 0.500000 0.256530 F F F
0.426240 0.500000 0.341750 F F F
0.426240 0.500000 0.426960 F F F
0.354810 0.500000 0.213920 F F F
0.354810 0.500000 0.299140 F F F
0.354810 0.500000 0.384350 F F F
0.354810 0.500000 0.469570 F F F
0.426240 0.500000 0.199720 F F F
0.426240 0.500000 0.284930 F F F
0.426240 0.500000 0.370150 F F F
0.426240 0.500000 0.455370 F F F
0.354810 0.500000 0.157110 F F F
0.354810 0.500000 0.242330 F F F
0.354810 0.500000 0.327540 F F F
0.354810 0.500000 0.412760 F F F
0.283380 0.500000 0.171310 F F F
0.283380 0.500000 0.256530 F F F
0.283380 0.500000 0.341750 F F F
0.283380 0.500000 0.426960 F F F
0.211960 0.500000 0.213920 F F F
0.211960 0.500000 0.299140 F F F
0.211960 0.500000 0.384350 F F F
0.211960 0.500000 0.469570 F F F
0.283380 0.500000 0.199720 F F F
0.283380 0.500000 0.284930 F F F
0.283380 0.500000 0.370150 F F F
0.283380 0.500000 0.455370 F F F
0.211960 0.500000 0.157110 F F F
0.211960 0.500000 0.242330 F F F
0.211960 0.500000 0.327540 F F F
0.211960 0.500000 0.412760 F F F
0.140530 0.500000 0.171310 F F F
0.140530 0.500000 0.256530 F F F
0.140530 0.500000 0.341750 F F F
0.140530 0.500000 0.426960 F F F
0.069100 0.500000 0.213920 F F F
0.069100 0.500000 0.299140 F F F
0.069100 0.500000 0.384350 F F F
0.069100 0.500000 0.469570 F F F
0.140530 0.500000 0.199720 F F F
0.140530 0.500000 0.284930 F F F
0.140530 0.500000 0.370150 F F F
0.140530 0.500000 0.455370 F F F
0.069100 0.500000 0.157110 F F F
0.069100 0.500000 0.242330 F F F
0.069100 0.500000 0.327540 F F F
0.069100 0.500000 0.412760 F F F
0.881751 0.745615 0.508925 T T T
0.681216 0.404736 0.476344 T T T
0.962071 0.341716 0.503524 T T T
0.757939 0.396981 0.472876 T T T
0.410834 0.751218 0.485135 T T T
0.646722 0.275159 0.470226 T T T
0.165579 0.932545 0.553114 T T T
0.988229 0.984739 0.517171 T T T
0.139264 0.517821 0.485512 T T T
0.834689 0.560771 0.507184 T T T
0.050064 0.822008 0.469999 T T T
0.978710 0.678690 0.536323 T T T
0.978076 0.687390 0.586294 T T T
0.997218 0.414053 0.605445 T T T
0.093917 0.907498 0.564268 T T T
0.263060 0.894949 0.623656 T T T
0.477723 0.009261 0.596458 T T T
0.888799 0.726201 0.543068 T T T
0.984945 0.047595 0.666496 T T T
0.553532 0.117298 0.492589 T T T
0.169150 0.227318 0.507070 T T T
0.490024 0.309204 0.479786 T T T
0.491148 0.384585 0.636048 T T T
0.845256 0.057242 0.688239 T T T
0.365739 0.272919 0.671377 T T T
0.201688 0.976846 0.575621 T T T
0.404081 0.906142 0.670827 T T T
0.801722 0.615140 0.527490 T T T
0.392463 0.524418 0.669915 T T T
0.167411 0.873645 0.623718 T T T
0.439229 0.296165 0.537252 T T T
0.579054 0.529896 0.657348 T T T
0.939105 0.902048 0.562189 T T T
0.862560 0.500000 0.714348 T T T
0.862560 0.500000 0.763548 T T T
0.862560 0.500000 0.812748 T T T
0.862560 0.500000 0.861948 T T T
0.862560 0.500000 0.911148 T T T
0.862560 0.500000 0.960348 T T T
0.862560 0.500000 0.009548 T T T
0.987560 0.500000 0.689748 T T T
0.987560 0.500000 0.738948 T T T
0.987560 0.500000 0.788148 T T T
0.987560 0.500000 0.837348 T T T
0.987560 0.500000 0.886548 T T T
0.987560 0.500000 0.935748 T T T
0.987560 0.500000 0.984948 T T T
0.945900 0.500000 0.714348 T T T
0.945900 0.500000 0.763548 T T T
0.945900 0.500000 0.812748 T T T
0.945900 0.500000 0.861948 T T T
0.945900 0.500000 0.911148 T T T
0.945900 0.500000 0.960348 T T T
0.945900 0.500000 0.009548 T T T
0.070900 0.500000 0.689748 T T T
0.070900 0.500000 0.738948 T T T
0.070900 0.500000 0.788148 T T T
0.070900 0.500000 0.837348 T T T
0.070900 0.500000 0.886548 T T T
0.070900 0.500000 0.935748 T T T
0.070900 0.500000 0.984948 T T T
0.112560 0.500000 0.714348 T T T
0.112560 0.500000 0.763548 T T T
0.829280 0.500000 0.029298 T T T
0.979170 0.500000 0.029298 T T T
0.079410 0.500000 0.029318 T T T
0.229170 0.500000 0.029298 T T T
0.329410 0.500000 0.029318 T T T
0.479170 0.500000 0.029298 T T T
0.579410 0.500000 0.029318 T T T
0.729170 0.500000 0.029298 T T T
0.926100 0.500000 0.134310 F F F
0.783520 0.500000 0.134310 F F F
0.640670 0.500000 0.134310 F F F
0.497810 0.500000 0.134310 F F F
0.354950 0.500000 0.134310 F F F
0.212100 0.500000 0.134310 F F F
0.068960 0.500000 0.134310 F F F
0.954595 0.200005 0.549133 T T T
0.885218 0.171180 0.470000 T T T
0.797022 0.244338 0.525446 T T T
0.779805 0.397560 0.520020 T T T
0.906360 0.087697 0.540972 T T T
0.911935 0.183803 0.603700 T T T
0.546766 0.519210 0.474259 T T T
0.906039 0.384387 0.471058 T T T
0.703182 0.815085 0.529399 T T T
0.304237 0.897622 0.554582 T T T
0.118930 0.498134 0.561039 T T T
0.250749 0.931153 0.517653 T T T
0.024477 0.814994 0.601184 T T T
0.829309 0.341040 0.597658 T T T
0.834569 0.372902 0.584536 T T T
0.365776 0.663091 0.489204 T T T
0.631196 0.686184 0.620172 T T T
0.363609 0.815585 0.582866 T T T
0.194395 0.509512 0.618531 T T T
0.116838 0.438034 0.610914 T T T
0.200195 0.447598 0.673098 T T T
0.278456 0.063908 0.600313 T T T
0.920508 0.238289 0.607643 T T T
0.592243 0.113036 0.688239 T T T
0.361001 0.050962 0.638435 T T T
0.586743 0.601174 0.651197 T T T
0.666185 0.628283 0.606810 T T T
0.530446 0.755373 0.595271 T T T
