search
1.0
17.131700 0.000000 0.000000
0.000000 10.000000 0.000000
0.000000 0.000000 50.000000
C H 
227 73 
Selective dynamics
Direct
0.361475 0.500000 0.828209 T T T
0.361475 0.500000 0.877409 T T T
0.361475 0.500000 0.926609 T T T
0.361475 0.500000 0.975809 T T T
0.361475 0.500000 0.025009 T T T
0.486475 0.500000 0.705209 T T T
0.486475 0.500000 0.754409 T T T
0.486475 0.500000 0.803609 T T T
0.486475 0.500000 0.852809 T T T
0.486475 0.500000 0.902009 T T T
0.486475 0.500000 0.951209 T T T
0.486475 0.500000 0.000409 T T T
0.444815 0.500000 0.729809 T T T
0.444815 0.500000 0.779009 T T T
0.444815 0.500000 0.828209 T T T
0.444815 0.500000 0.877409 T T T
0.444815 0.500000 0.926609 T T T
0.444815 0.500000 0.975809 T T T
0.444815 0.500000 0.025009 T T T
0.569815 0.500000 0.705209 T T T
0.569815 0.500000 0.754409 T T T
0.569815 0.500000 0.803609 T T T
0.569815 0.500000 0.852809 T T T
0.569815 0.500000 0.902009 T T T
0.569815 0.500000 0.951209 T T T
0.569815 0.500000 0.000409 T T T
0.611475 0.500000 0.729809 T T T
0.611475 0.500000 0.779009 T T T
0.611475 0.500000 0.828209 T T T
0.611475 0.500000 0.877409 T T T
0.611475 0.500000 0.926609 T T T
0.611475 0.500000 0.975809 T T T
0.611475 0.500000 0.025009 T T T
0.736475 0.500000 0.705209 T T T
0.736475 0.500000 0.754409 T T T
0.736475 0.500000 0.803609 T T T
0.736475 0.500000 0.852809 T T T
0.736475 0.500000 0.902009 T T T
0.736475 0.500000 0.951209 T T T
0.736475 0.500000 0.000409 T T T
0.694815 0.500000 0.729809 T T T
0.694815 0.500000 0.779009 T T T
0.694815 0.500000 0.828209 T T T
0.694815 0.500000 0.877409 T T T
0.694815 0.500000 0.926609 T T T
0.694815 0.500000 0.975809 T T T
0.694815 0.500000 0.025009 T T T
0.819815 0.500000 0.705209 T T T
0.819815 0.500000 0.754409 T T T
0.819815 0.500000 0.803609 T T T
0.819815 0.500000 0.852809 T T T
0.819815 0.500000 0.902009 T T T
0.819815 0.500000 0.951209 T T T
0.819815 0.500000 0.000409 T T T
0.861475 0.500000 0.729809 T T T
0.861475 0.500000 0.779009 T T T
0.861475 0.500000 0.828209 T T T
0.861475 0.500000 0.877409 T T T
0.861475 0.500000 0.926609 T T T
0.861475 0.500000 0.975809 T T T
0.861475 0.500000 0.025009 T T T
0.986475 0.500000 0.705209 T T T
0.986475 0.500000 0.754409 T T T
0.986475 0.500000 0.803609 T T T
0.986475 0.500000 0.852809 T T T
0.986475 0.500000 0.902009 T T T
0.986475 0.500000 0.951209 T T T
0.986475 0.500000 0.000409 T T T
0.944815 0.500000 0.729809 T T T
0.944815 0.500000 0.779009 T T T
0.944815 0.500000 0.828209 T T T
0.944815 0.500000 0.877409 T T T
0.944815 0.500000 0.926609 T T T
0.944815 0.500000 0.975809 T T T
0.944815 0.500000 0.025009 T T T
0.069815 0.500000 0.705209 T T T
0.069815 0.500000 0.754409 T T T
0.069815 0.500000 0.803609 T T T
0.069815 0.500000 0.852809 T T T
0.069815 0.500000 0.902009 T T T
0.069815 0.500000 0.951209 T T T
0.069815 0.500000 0.000409 T T T
0.997670 0.500000 0.171310 F F F
0.997670 0.500000 0.256530 F F F
0.997670 0.500000 0.341750 F F F
0.997670 0.500000 0.426960 F F F
0.997670 0.500000 0.199720 F F F
0.997670 0.500000 0.284930 F F F
0.997670 0.500000 0.370150 F F F
0.997670 0.500000 0.455370 F F F
0.926240 0.500000 0.213920 F F F
0.926240 0.500000 0.299140 F F F
0.926240 0.500000 0.384350 F F F
0.926240 0.500000 0.469570 F F F
0.926240 0.500000 0.157110 F F F
0.926240 0.500000 0.242330 F F F
0.926240 0.500000 0.327540 F F F
0.926240 0.500000 0.412760 F F F
0.854810 0.500000 0.171310 F F F
0.854810 0.500000 0.256530 F F F
0.854810 0.500000 0.341750 F F F
0.854810 0.500000 0.426960 F F F
0.783380 0.500000 0.213920 F F F
0.783380 0.500000 0.299140 F F F
0.783380 0.500000 0.384350 F F F
0.783380 0.500000 0.469570 F F F
0.854810 0.500000 0.199720 F F F
0.854810 0.500000 0.284930 F F F
0.854810 0.500000 0.370150 F F F
0.854810 0.500000 0.455370 F F F
0.783380 0.500000 0.157110 F F F
0.783380 0.500000 0.242330 F F F
0.783380 0.500000 0.327540 F F F
0.783380 0.500000 0.412760 F F F
0.711960 0.500000 0.171310 F F F
0.711960 0.500000 0.256530 F F F
0.711960 0.500000 0.341750 F F F
0.711960 0.500000 0.426960 F F F
0.640530 0.500000 0.213920 F F F
0.640530 0.500000 0.299140 F F F
0.640530 0.500000 0.384350 F F F
0.640530 0.500000 0.469570 F F F
0.711960 0.500000 0.199720 F F F
0.711960 0.500000 0.284930 F F F
0.711960 0.500000 0.370150 F F F
0.711960 0.500000 0.455370 F F F
0.640530 0.500000 0.157110 F F F
0.640530 0.500000 0.242330 F F F
0.640530 0.500000 0.327540 F F F
0.640530 0.500000 0.412760 F F F
0.569100 0.500000 0.171310 F F F
0.569100 0.500000 0.256530 F F F
0.569100 0.500000 0.341750 F F F
0.569100 0.500000 0.426960 F F F
0.497670 0.500000 0.213920 F F F
0.497670 0.500000 0.299140 F F F
0.497670 0.500000 0.384350 F F F
0.497670 0.500000 0.469570 F F F
0.569100 0.500000 0.199720 F F F
0.569100 0.500000 0.284930 F F F
0.569100 0.500000 0.370150 F F F
0.569100 0.500000 0.455370 F F F
0.497670 0.500000 0.157110 F F F
0.497670 0.500000 0.242330 F F F
0.497670 0.500000 0.327540 F F F
0.497670 0.500000 0.412760 F F F
0.426240 0.500000 0.171310 F F F
0.426240 0.500000 0.256530 F F F
0.426240 0.500000 0.341750 F F F
0.426240 0.500000 0.426960 F F F
0.354810 0.500000 0.213920 F F F
0.354810 0.500000 0.299140 F F F
0.354810 0.500000 0.384350 F F F
0.354810 0.500000 0.469570 F F F
0.426240 0.500000 0.199720 F F F
0.426240 0.500000 0.284930 F F F
0.426240 0.500000 0.370150 F F F
0.426240 0.500000 0.455370 F F F
0.354810 0.500000 0.157110 F F F
0.354810 0.500000 0.242330 F F F
0.354810 0.500000 0.327540 F F F
0.354810 0.500000 0.412760 F F F
0.283380 0.500000 0.171310 F F F
0.283380 0.500000 0.256530 F F F
0.283380 0.500000 0.341750 F F F
0.283380 0.500000 0.426960 F F F
0.211960 0.500000 0.213920 F F F
0.211960 0.500000 0.299140 F F F
0.211960 0.500000 0.384350 F F F
0.211960 0.500000 0.469570 F F F
0.283380 0.500000 0.199720 F F F
0.283380 0.500000 0.284930 F F F
0.283380 0.500000 0.370150 F F F
0.283380 0.500000 0.455370 F F F
0.211960 0.500000 0.157110 F F F
0.211960 0.500000 0.242330 F F F
0.211960 0.500000 0.327540 F F F
0.211960 0.500000 0.412760 F F F
0.140530 0.500000 0.171310 F F F
0.140530 0.500000 0.256530 F F F
0.140530 0.500000 0.341750 F F F
0.140530 0.500000 0.426960 F F F
0.069100 0.500000 0.213920 F F F
0.069100 0.500000 0.299140 F F F
0.069100 0.500000 0.384350 F F F
0.069100 0.500000 0.469570 F F F
0.140530 0.500000 0.199720 F F F
0.140530 0.500000 0.284930 F F F
0.140530 0.500000 0.370150 F F F
0.140530 0.500000 0.455370 F F F
0.069100 0.500000 0.157110 F F F
0.069100 0.500000 0.242330 F F F
0.069100 0.500000 0.327540 F F F
0.069100 0.500000 0.412760 F F F
0.229161 0.187714 0.479694 T T T
0.302804 0.192942 0.487693 T T T
0.229748 0.548385 0.494217 T T T
0.170349 0.580524 0.508590 T T T
0.135064 0.653528 0.469001 T T T
0.531306 0.062272 0.478554 T T T
0.456922 0.098113 0.475534 T T T
0.439586 0.230312 0.524529 T T T
0.507121 0.392222 0.492792 T T T
0.934666 0.461863 0.495547 T T T
0.428510 0.910721 0.534785 T T T
0.095429 0.086374 0.596472 T T T
0.231590 0.444051 0.605691 T T T
0.024178 0.732089 0.560268 T T T
0.156967 0.751981 0.549817 T T T
0.296222 0.979353 0.549278 T T T
0.619421 0.226188 0.580283 T T T
0.615407 0.574300 0.595847 T T T
0.449483 0.578059 0.578461 T T T
0.678137 0.583388 0.581017 T T T
0.475527 0.658462 0.556630 T T T
0.392865 0.943316 0.588034 T T T
0.247326 0.016616 0.640489 T T T
0.155832 0.145360 0.676649 T T T
0.331566 0.427126 0.684609 T T T
0.173352 0.641166 0.641168 T T T
0.405041 0.985904 0.612796 T T T
0.963148 0.300620 0.683450 T T T
0.959875 0.470747 0.678947 T T T
0.610557 0.688072 0.641192 T T T
0.662307 0.773598 0.650845 T T T
0.964900 0.975285 0.641361 T T T
0.504210 0.996582 0.693601 T T T
0.111475 0.500000 0.729809 T T T
0.111475 0.500000 0.779009 T T T
0.111475 0.500000 0.828209 T T T
0.111475 0.500000 0.877409 T T T
0.111475 0.500000 0.926609 T T T
0.111475 0.500000 0.975809 T T T
0.111475 0.500000 0.025009 T T T
0.236475 0.500000 0.705209 T T T
0.236475 0.500000 0.754409 T T T
0.236475 0.500000 0.803609 T T T
0.236475 0.500000 0.852809 T T T
0.236475 0.500000 0.902009 T T T
0.236475 0.500000 0.951209 T T T
0.236475 0.500000 0.000409 T T T
0.194815 0.500000 0.729809 T T T
0.194815 0.500000 0.779009 T T T
0.194815 0.500000 0.828209 T T T
0.194815 0.500000 0.877409 T T T
0.194815 0.500000 0.926609 T T T
0.194815 0.500000 0.975809 T T T
0.194815 0.500000 0.025009 T T T
0.319815 0.500000 0.705209 T T T
0.319815 0.500000 0.754409 T T T
0.319815 0.500000 0.803609 T T T
0.319815 0.500000 0.852809 T T T
0.319815 0.500000 0.902009 T T T
0.319815 0.500000 0.951209 T T T
0.319815 0.500000 0.000409 T T T
0.361475 0.500000 0.729809 T T T
0.361475 0.500000 0.779009 T T T
0.078195 0.500000 0.044759 T T T
0.228085 0.500000 0.044759 T T T
0.328325 0.500000 0.044779 T T T
0.478085 0.500000 0.044759 T T T
0.578325 0.500000 0.044779 T T T
0.728085 0.500000 0.044759 T T T
0.828325 0.500000 0.044779 T T T
0.978085 0.500000 0.044759 T T T
0.926100 0.500000 0.134310 F F F
0.783520 0.500000 0.134310 F F F
0.640670 0.500000 0.134310 F F F
0.497810 0.500000 0.134310 F F F
0.354950 0.500000 0.134310 F F F
0.212100 0.500000 0.134310 F F F
0.068960 0.500000 0.134310 F F F
0.194160 0.184577 0.532244 T T T
0.510009 0.298683 0.484374 T T T
0.225581 0.430774 0.519769 T T T
0.387818 0.468052 0.489380 T T T
0.688872 0.618111 0.530055 T T T
0.589115 0.754601 0.498153 T T T
0.814169 0.764564 0.512151 T T T
0.539324 0.827653 0.495688 T T T
0.850357 0.967929 0.533032 T T T
0.043601 0.015131 0.592531 T T T
0.037414 0.188382 0.546239 T T T
0.183697 0.292821 0.566429 T T T
0.015724 0.850732 0.568860 T T T
0.680334 0.081213 0.550164 T T T
0.525539 0.259170 0.550852 T T T
0.400123 0.538973 0.589210 T T T
0.497444 0.539624 0.547754 T T T
0.911407 0.768578 0.558263 T T T
0.252414 0.136487 0.673442 T T T
0.114883 0.195459 0.689602 T T T
0.062609 0.244496 0.662784 T T T
0.487275 0.285262 0.691864 T T T
0.253879 0.344088 0.617921 T T T
0.797187 0.183553 0.597197 T T T
0.865178 0.394835 0.604104 T T T
0.909218 0.408013 0.637782 T T T
0.875769 0.614495 0.662109 T T T
0.564187 0.726180 0.627531 T T T
