search
1.0
17.131700 0.000000 0.000000
0.000000 10.000000 0.000000
0.000000 0.000000 50.000000
C H 
227 73 
Selective dynamics
Direct
0.436466 0.500000 0.790298 T T T
0.436466 0.500000 0.839498 T T T
0.436466 0.500000 0.888698 T T T
0.436466 0.500000 0.937898 T T T
0.436466 0.500000 0.987098 T T T
0.561466 0.500000 0.667298 T T T
0.561466 0.500000 0.716498 T T T
0.561466 0.500000 0.765698 T T T
0.561466 0.500000 0.814898 T T T
0.561466 0.500000 0.864098 T T T
0.561466 0.500000 0.913298 T T T
0.561466 0.500000 0.962498 T T T
0.519806 0.500000 0.691898 T T T
0.519806 0.500000 0.741098 T T T
0.519806 0.500000 0.790298 T T T
0.519806 0.500000 0.839498 T T T
0.519806 0.500000 0.888698 T T T
0.519806 0.500000 0.937898 T T T
0.519806 0.500000 0.987098 T T T
0.644806 0.500000 0.667298 T T T
0.644806 0.500000 0.716498 T T T
0.644806 0.500000 0.765698 T T T
0.644806 0.500000 0.814898 T T T
0.644806 0.500000 0.864098 T T T
0.644806 0.500000 0.913298 T T T
0.644806 0.500000 0.962498 T T T
0.686466 0.500000 0.691898 T T T
0.686466 0.500000 0.741098 T T T
0.686466 0.500000 0.790298 T T T
0.686466 0.500000 0.839498 T T T
0.686466 0.500000 0.888698 T T T
0.686466 0.500000 0.937898 T T T
0.686466 0.500000 0.987098 T T T
0.811466 0.500000 0.667298 T T T
0.811466 0.500000 0.716498 T T T
0.811466 0.500000 0.765698 T T T
0.811466 0.500000 0.814898 T T T
0.811466 0.500000 0.864098 T T T
0.811466 0.500000 0.913298 T T T
0.811466 0.500000 0.962498 T T T
0.769806 0.500000 0.691898 T T T
0.769806 0.500000 0.741098 T T T
0.769806 0.500000 0.790298 T T T
0.769806 0.500000 0.839498 T T T
0.769806 0.500000 0.888698 T T T
0.769806 0.500000 0.937898 T T T
0.769806 0.500000 0.987098 T T T
0.894806 0.500000 0.667298 T T T
0.894806 0.500000 0.716498 T T T
0.894806 0.500000 0.765698 T T T
0.894806 0.500000 0.814898 T T T
0.894806 0.500000 0.864098 T T T
0.894806 0.500000 0.913298 T T T
0.894806 0.500000 0.962498 T T T
0.936466 0.500000 0.691898 T T T
0.936466 0.500000 0.741098 T T T
0.936466 0.500000 0.790298 T T T
0.936466 0.500000 0.839498 T T T
0.936466 0.500000 0.888698 T T T
0.936466 0.500000 0.937898 T T T
0.936466 0.500000 0.987098 T T T
0.061466 0.500000 0.667298 T T T
0.061466 0.500000 0.716498 T T T
0.061466 0.500000 0.765698 T T T
0.061466 0.500000 0.814898 T T T
0.061466 0.500000 0.864098 T T T
0.061466 0.500000 0.913298 T T T
0.061466 0.500000 0.962498 T T T
0.019806 0.500000 0.691898 T T T
0.019806 0.500000 0.741098 T T T
0.019806 0.500000 0.790298 T T T
0.019806 0.500000 0.839498 T T T
0.019806 0.500000 0.888698 T T T
0.019806 0.500000 0.937898 T T T
0.019806 0.500000 0.987098 T T T
0.144806 0.500000 0.667298 T T T
0.144806 0.500000 0.716498 T T T
0.144806 0.500000 0.765698 T T T
0.144806 0.500000 0.814898 T T T
0.144806 0.500000 0.864098 T T T
0.144806 0.500000 0.913298 T T T
0.144806 0.500000 0.962498 T T T
0.997670 0.500000 0.171310 F F F
0.997670 0.500000 0.256530 F F F
0.997670 0.500000 0.341750 F F F
0.997670 0.500000 0.426960 F F F
0.997670 0.500000 0.199720 F F F
0.997670 0.500000 0.284930 F F F
0.997670 0.500000 0.370150 F F F
0.997670 0.500000 0.455370 F F F
0.926240 0.500000 0.213920 F F F
0.926240 0.500000 0.299140 F F F
0.926240 0.500000 0.384350 F F F
0.926240 0.500000 0.469570 F F F
0.926240 0.500000 0.157110 F F F
0.926240 0.500000 0.242330 F F F
0.926240 0.500000 0.327540 F F F
0.926240 0.500000 0.412760 F F F
0.854810 0.500000 0.171310 F F F
0.854810 0.500000 0.256530 F F F
0.854810 0.500000 0.341750 F F F
0.854810 0.500000 0.426960 F F F
0.783380 0.500000 0.213920 F F F
0.783380 0.500000 0.299140 F F F
0.783380 0.500000 0.384350 F F F
0.783380 0.500000 0.469570 F F F
0.854810 0.500000 0.199720 F F F
0.854810 0.500000 0.284930 F F F
0.854810 0.500000 0.370150 F F F
0.854810 0.500000 0.455370 F F F
0.783380 0.500000 0.157110 F F F
0.783380 0.500000 0.242330 F F F
0.783380 0.500000 0.327540 F F F
0.783380 0.500000 0.412760 F F F
0.711960 0.500000 0.171310 F F F
0.711960 0.500000 0.256530 F F F
0.711960 0.500000 0.341750 F F F
0.711960 0.500000 0.426960 F F F
0.640530 0.500000 0.213920 F F F
0.640530 0.500000 0.299140 F F F
0.640530 0.500000 0.384350 F F F
0.640530 0.500000 0.469570 F F F
0.711960 0.500000 0.199720 F F F
0.711960 0.500000 0.284930 F F F
0.711960 0.500000 0.370150 F F F
0.711960 0.500000 0.455370 F F F
0.640530 0.500000 0.157110 F F F
0.640530 0.500000 0.242330 F F F
0.640530 0.500000 0.327540 F F F
0.640530 0.500000 0.412760 F F F
0.569100 0.500000 0.171310 F F F
0.569100 0.500000 0.256530 F F F
0.569100 0.500000 0.341750 F F F
0.569100 0.500000 0.426960 F F F
0.497670 0.500000 0.213920 F F F
0.497670 0.500000 0.299140 F F F
0.497670 0.500000 0.384350 F F F
0.497670 0.500000 0.469570 F F F
0.569100 0.500000 0.199720 F F F
0.569100 0.500000 0.284930 F F F
0.569100 0.500000 0.370150 F F F
0.569100 0.500000 0.455370 F F F
0.497670 0.500000 0.157110 F F F
0.497670 0.500000 0.242330 F F F
0.497670 0.500000 0.327540 F F F
0.497670 0.500000 0.412760 F F F
0.426240 0.500000 0.171310 F F F
0.426240 0.500000 0.256530 F F F
0.426240 0.500000 0.341750 F F F
0.426240 0.500000 0.426960 F F F
0.354810 0.500000 0.213920 F F F
0.354810 0.500000 0.299140 F F F
0.354810 0.500000 0.384350 F F F
0.354810 0.500000 0.469570 F F F
0.426240 0.500000 0.199720 F F F
0.426240 0.500000 0.284930 F F F
0.426240 0.500000 0.370150 F F F
0.426240 0.500000 0.455370 F F F
0.354810 0.500000 0.157110 F F F
0.354810 0.500000 0.242330 F F F
0.354810 0.500000 0.327540 F F F
0.354810 0.500000 0.412760 F F F
0.283380 0.500000 0.171310 F F F
0.283380 0.500000 0.256530 F F F
0.283380 0.500000 0.341750 F F F
0.283380 0.500000 0.426960 F F F
0.211960 0.500000 0.213920 F F F
0.211960 0.500000 0.299140 F F F
0.211960 0.500000 0.384350 F F F
0.211960 0.500000 0.469570 F F F
0.283380 0.500000 0.199720 F F F
0.283380 0.500000 0.284930 F F F
0.283380 0.500000 0.370150 F F F
0.283380 0.500000 0.455370 F F F
0.211960 0.500000 0.157110 F F F
0.211960 0.500000 0.242330 F F F
0.211960 0.500000 0.327540 F F F
0.211960 0.500000 0.412760 F F F
0.140530 0.500000 0.171310 F F F
0.140530 0.500000 0.256530 F F F
0.140530 0.500000 0.341750 F F F
0.140530 0.500000 0.426960 F F F
0.069100 0.500000 0.213920 F F F
0.069100 0.500000 0.299140 F F F
0.069100 0.500000 0.384350 F F F
0.069100 0.500000 0.469570 F F F
0.140530 0.500000 0.199720 F F F
0.140530 0.500000 0.284930 F F F
0.140530 0.500000 0.370150 F F F
0.140530 0.500000 0.455370 F F F
0.069100 0.500000 0.157110 F F F
0.069100 0.500000 0.242330 F F F
0.069100 0.500000 0.327540 F F F
0.069100 0.500000 0.412760 F F F
0.070160 0.135377 0.506784 T T T
0.287923 0.459912 0.486147 T T T
0.304926 0.634787 0.513699 T T T
0.891223 0.088684 0.502178 T T T
0.195823 0.734124 0.497837 T T T
0.831296 0.003890 0.502726 T T T
0.645491 0.983452 0.503159 T T T
0.862136 0.347075 0.505176 T T T
0.408086 0.552936 0.524284 T T T
0.747595 0.505619 0.496535 T T T
0.824382 0.814938 0.482700 T T T
0.003206 0.001472 0.574863 T T T
0.189162 0.145555 0.539840 T T T
0.214376 0.442704 0.503013 T T T
0.896957 0.456778 0.563278 T T T
0.034744 0.506630 0.570119 T T T
0.126463 0.238458 0.572687 T T T
0.494423 0.329701 0.600770 T T T
0.464463 0.334498 0.576348 T T T
0.096325 0.386607 0.569613 T T T
0.828392 0.624346 0.516171 T T T
0.407095 0.711589 0.534243 T T T
0.167595 0.097029 0.665762 T T T
0.880690 0.983080 0.658714 T T T
0.020714 0.959205 0.645229 T T T
0.011228 0.606066 0.655515 T T T
0.812615 0.873325 0.587777 T T T
0.890125 0.193779 0.610455 T T T
0.736780 0.395838 0.643025 T T T
0.013480 0.581502 0.591806 T T T
0.378584 0.710354 0.665632 T T T
0.993422 0.979922 0.620744 T T T
0.461085 0.896959 0.665764 T T T
0.186466 0.500000 0.691898 T T T
0.186466 0.500000 0.741098 T T T
0.186466 0.500000 0.790298 T T T
0.186466 0.500000 0.839498 T T T
0.186466 0.500000 0.888698 T T T
0.186466 0.500000 0.937898 T T T
0.186466 0.500000 0.987098 T T T
0.311466 0.500000 0.667298 T T T
0.311466 0.500000 0.716498 T T T
0.311466 0.500000 0.765698 T T T
0.311466 0.500000 0.814898 T T T
0.311466 0.500000 0.864098 T T T
0.311466 0.500000 0.913298 T T T
0.311466 0.500000 0.962498 T T T
0.269806 0.500000 0.691898 T T T
0.269806 0.500000 0.741098 T T T
0.269806 0.500000 0.790298 T T T
0.269806 0.500000 0.839498 T T T
0.269806 0.500000 0.888698 T T T
0.269806 0.500000 0.937898 T T T
0.269806 0.500000 0.987098 T T T
0.394806 0.500000 0.667298 T T T
0.394806 0.500000 0.716498 T T T
0.394806 0.500000 0.765698 T T T
0.394806 0.500000 0.814898 T T T
0.394806 0.500000 0.864098 T T T
0.394806 0.500000 0.913298 T T T
0.394806 0.500000 0.962498 T T T
0.436466 0.500000 0.691898 T T T
0.436466 0.500000 0.741098 T T T
0.153186 0.500000 0.006848 T T T
0.303076 0.500000 0.006848 T T T
0.403316 0.500000 0.006868 T T T
0.553076 0.500000 0.006848 T T T
0.653316 0.500000 0.006868 T T T
0.803076 0.500000 0.006848 T T T
0.903316 0.500000 0.006868 T T T
0.053076 0.500000 0.006848 T T T
0.926100 0.500000 0.134310 F F F
0.783520 0.500000 0.134310 F F F
0.640670 0.500000 0.134310 F F F
0.497810 0.500000 0.134310 F F F
0.354950 0.500000 0.134310 F F F
0.212100 0.500000 0.134310 F F F
0.068960 0.500000 0.134310 F F F
0.566954 0.103129 0.496390 T T T
0.759591 0.602149 0.512936 T T T
0.387595 0.339128 0.511840 T T T
0.799571 0.120839 0.526509 T T T
0.650327 0.139899 0.510401 T T T
0.654700 0.250733 0.469994 T T T
0.079796 0.257649 0.469999 T T T
0.171942 0.371043 0.503705 T T T
0.633153 0.709597 0.495304 T T T
0.026530 0.065736 0.558244 T T T
0.375629 0.535874 0.543240 T T T
0.254483 0.595577 0.544254 T T T
0.260945 0.654708 0.532815 T T T
0.561254 0.321688 0.533109 T T T
0.880966 0.579449 0.508615 T T T
0.710305 0.458117 0.515258 T T T
0.461254 0.692732 0.545792 T T T
0.772076 0.751842 0.567859 T T T
0.347757 0.399191 0.626116 T T T
0.177238 0.632135 0.643301 T T T
0.281639 0.638996 0.610002 T T T
0.364965 0.856764 0.635905 T T T
0.924995 0.945897 0.594304 T T T
0.395961 0.733716 0.597405 T T T
0.732559 0.551572 0.614890 T T T
0.376366 0.641674 0.598827 T T T
0.022061 0.795062 0.578119 T T T
0.669480 0.802840 0.664194 T T T
