search
1.0
17.131700 0.000000 0.000000
0.000000 10.000000 0.000000
0.000000 0.000000 50.000000
C H 
227 73 
Selective dynamics
Direct
0.219207 0.500000 0.790293 T T T
0.219207 0.500000 0.839493 T T T
0.219207 0.500000 0.888693 T T T
0.219207 0.500000 0.937893 T T T
0.219207 0.500000 0.987093 T T T
0.344207 0.500000 0.667293 T T T
0.344207 0.500000 0.716493 T T T
0.344207 0.500000 0.765693 T T T
0.344207 0.500000 0.814893 T T T
0.344207 0.500000 0.864093 T T T
0.344207 0.500000 0.913293 T T T
0.344207 0.500000 0.962493 T T T
0.302547 0.500000 0.691893 T T T
0.302547 0.500000 0.741093 T T T
0.302547 0.500000 0.790293 T T T
0.302547 0.500000 0.839493 T T T
0.302547 0.500000 0.888693 T T T
0.302547 0.500000 0.937893 T T T
0.302547 0.500000 0.987093 T T T
0.427547 0.500000 0.667293 T T T
0.427547 0.500000 0.716493 T T T
0.427547 0.500000 0.765693 T T T
0.427547 0.500000 0.814893 T T T
0.427547 0.500000 0.864093 T T T
0.427547 0.500000 0.913293 T T T
0.427547 0.500000 0.962493 T T T
0.469207 0.500000 0.691893 T T T
0.469207 0.500000 0.741093 T T T
0.469207 0.500000 0.790293 T T T
0.469207 0.500000 0.839493 T T T
0.469207 0.500000 0.888693 T T T
0.469207 0.500000 0.937893 T T T
0.469207 0.500000 0.987093 T T T
0.594207 0.500000 0.667293 T T T
0.594207 0.500000 0.716493 T T T
0.594207 0.500000 0.765693 T T T
0.594207 0.500000 0.814893 T T T
0.594207 0.500000 0.864093 T T T
0.594207 0.500000 0.913293 T T T
0.594207 0.500000 0.962493 T T T
0.552547 0.500000 0.691893 T T T
0.552547 0.500000 0.741093 T T T
0.552547 0.500000 0.790293 T T T
0.552547 0.500000 0.839493 T T T
0.552547 0.500000 0.888693 T T T
0.552547 0.500000 0.937893 T T T
0.552547 0.500000 0.987093 T T T
0.677547 0.500000 0.667293 T T T
0.677547 0.500000 0.716493 T T T
0.677547 0.500000 0.765693 T T T
0.677547 0.500000 0.814893 T T T
0.677547 0.500000 0.864093 T T T
0.677547 0.500000 0.913293 T T T
0.677547 0.500000 0.962493 T T T
0.719207 0.500000 0.691893 T T T
0.719207 0.500000 0.741093 T T T
0.719207 0.500000 0.790293 T T T
0.719207 0.500000 0.839493 T T T
0.719207 0.500000 0.888693 T T T
0.719207 0.500000 0.937893 T T T
0.719207 0.500000 0.987093 T T T
0.844207 0.500000 0.667293 T T T
0.844207 0.500000 0.716493 T T T
0.844207 0.500000 0.765693 T T T
0.844207 0.500000 0.814893 T T T
0.844207 0.500000 0.864093 T T T
0.844207 0.500000 0.913293 T T T
0.844207 0.500000 0.962493 T T T
0.802547 0.500000 0.691893 T T T
0.802547 0.500000 0.741093 T T T
0.802547 0.500000 0.790293 T T T
0.802547 0.500000 0.839493 T T T
0.802547 0.500000 0.888693 T T T
0.802547 0.500000 0.937893 T T T
0.802547 0.500000 0.987093 T T T
0.927547 0.500000 0.667293 T T T
0.927547 0.500000 0.716493 T T T
0.927547 0.500000 0.765693 T T T
0.927547 0.500000 0.814893 T T T
0.927547 0.500000 0.864093 T T T
0.927547 0.500000 0.913293 T T T
0.927547 0.500000 0.962493 T T T
0.997670 0.500000 0.171310 F F F
0.997670 0.500000 0.256530 F F F
0.997670 0.500000 0.341750 F F F
0.997670 0.500000 0.426960 F F F
0.997670 0.500000 0.199720 F F F
0.997670 0.500000 0.284930 F F F
0.997670 0.500000 0.370150 F F F
0.997670 0.500000 0.455370 F F F
0.926240 0.500000 0.213920 F F F
0.926240 0.500000 0.299140 F F F
0.926240 0.500000 0.384350 F F F
0.926240 0.500000 0.469570 F F F
0.926240 0.500000 0.157110 F F F
0.926240 0.500000 0.242330 F F F
0.926240 0.500000 0.327540 F F F
0.926240 0.500000 0.412760 F F F
0.854810 0.500000 0.171310 F F F
0.854810 0.500000 0.256530 F F F
0.854810 0.500000 0.341750 F F F
0.854810 0.500000 0.426960 F F F
0.783380 0.500000 0.213920 F F F
0.783380 0.500000 0.299140 F F F
0.783380 0.500000 0.384350 F F F
0.783380 0.500000 0.469570 F F F
0.854810 0.500000 0.199720 F F F
0.854810 0.500000 0.284930 F F F
0.854810 0.500000 0.370150 F F F
0.854810 0.500000 0.455370 F F F
0.783380 0.500000 0.157110 F F F
0.783380 0.500000 0.242330 F F F
0.783380 0.500000 0.327540 F F F
0.783380 0.500000 0.412760 F F F
0.711960 0.500000 0.171310 F F F
0.711960 0.500000 0.256530 F F F
0.711960 0.500000 0.341750 F F F
0.711960 0.500000 0.426960 F F F
0.640530 0.500000 0.213920 F F F
0.640530 0.500000 0.299140 F F F
0.640530 0.500000 0.384350 F F F
0.640530 0.500000 0.469570 F F F
0.711960 0.500000 0.199720 F F F
0.711960 0.500000 0.284930 F F F
0.711960 0.500000 0.370150 F F F
0.711960 0.500000 0.455370 F F F
0.640530 0.500000 0.157110 F F F
0.640530 0.500000 0.242330 F F F
0.640530 0.500000 0.327540 F F F
0.640530 0.500000 0.412760 F F F
0.569100 0.500000 0.171310 F F F
0.569100 0.500000 0.256530 F F F
0.569100 0.500000 0.341750 F F F
0.569100 0.500000 0.426960 F F F
0.497670 0.500000 0.213920 F F F
0.497670 0.500000 0.299140 F F F
0.497670 0.500000 0.384350 F F F
0.497670 0.500000 0.469570 F F F
0.569100 0.500000 0.199720 F F F
0.569100 0.500000 0.284930 F F F
0.569100 0.500000 0.370150 F F F
0.569100 0.500000 0.455370 F F F
0.497670 0.500000 0.157110 F F F
0.497670 0.500000 0.242330 F F F
0.497670 0.500000 0.327540 F F F
0.497670 0.500000 0.412760 F F F
0.426240 0.500000 0.171310 F F F
0.426240 0.500000 0.256530 F F F
0.426240 0.500000 0.341750 F F F
0.426240 0.500000 0.426960 F F F
0.354810 0.500000 0.213920 F F F
0.354810 0.500000 0.299140 F F F
0.354810 0.500000 0.384350 F F F
0.354810 0.500000 0.469570 F F F
0.426240 0.500000 0.199720 F F F
0.426240 0.500000 0.284930 F F F
0.426240 0.500000 0.370150 F F F
0.426240 0.500000 0.455370 F F F
0.354810 0.500000 0.157110 F F F
0.354810 0.500000 0.242330 F F F
0.354810 0.500000 0.327540 F F F
0.354810 0.500000 0.412760 F F F
0.283380 0.500000 0.171310 F F F
0.283380 0.500000 0.256530 F F F
0.283380 0.500000 0.341750 F F F
0.283380 0.500000 0.426960 F F F
0.211960 0.500000 0.213920 F F F
0.211960 0.500000 0.299140 F F F
0.211960 0.500000 0.384350 F F F
0.211960 0.500000 0.469570 F F F
0.283380 0.500000 0.199720 F F F
0.283380 0.500000 0.284930 F F F
0.283380 0.500000 0.370150 F F F
0.283380 0.500000 0.455370 F F F
0.211960 0.500000 0.157110 F F F
0.211960 0.500000 0.242330 F F F
0.211960 0.500000 0.327540 F F F
0.211960 0.500000 0.412760 F F F
0.140530 0.500000 0.171310 F F F
0.140530 0.500000 0.256530 F F F
0.140530 0.500000 0.341750 F F F
0.140530 0.500000 0.426960 F F F
0.069100 0.500000 0.213920 F F F
0.069100 0.500000 0.299140 F F F
0.069100 0.500000 0.384350 F F F
0.069100 0.500000 0.469570 F F F
0.140530 0.500000 0.199720 F F F
0.140530 0.500000 0.284930 F F F
0.140530 0.500000 0.370150 F F F
0.140530 0.500000 0.455370 F F F
0.069100 0.500000 0.157110 F F F
0.069100 0.500000 0.242330 F F F
0.069100 0.500000 0.327540 F F F
0.069100 0.500000 0.412760 F F F
0.734984 0.683236 0.486411 T T T
0.023655 0.736421 0.513929 T T T
0.611045 0.748311 0.536284 T T T
0.464510 0.795246 0.511643 T T T
0.229118 0.948673 0.528174 T T T
0.955549 0.098805 0.503112 T T T
0.746566 0.142401 0.518787 T T T
0.755072 0.330915 0.542206 T T T
0.897323 0.350804 0.476495 T T T
0.745586 0.505619 0.494255 T T T
0.737320 0.789177 0.493327 T T T
0.083409 0.137248 0.547403 T T T
0.081953 0.269774 0.547281 T T T
0.257172 0.786848 0.595526 T T T
0.357016 0.852478 0.567518 T T T
0.148511 0.882960 0.586616 T T T
0.941595 0.210987 0.573120 T T T
0.403771 0.378461 0.550267 T T T
0.396112 0.689235 0.570883 T T T
0.506814 0.799677 0.569785 T T T
0.950024 0.890644 0.586451 T T T
0.715218 0.980143 0.549120 T T T
0.463319 0.241673 0.646563 T T T
0.549475 0.652023 0.662025 T T T
0.415353 0.766076 0.622945 T T T
0.036682 0.798031 0.632427 T T T
0.578077 0.854118 0.626309 T T T
0.802916 0.241889 0.652953 T T T
0.634164 0.268205 0.649527 T T T
0.715287 0.438680 0.637674 T T T
0.983089 0.441277 0.654326 T T T
0.992304 0.594638 0.612658 T T T
0.586177 0.849324 0.657446 T T T
0.969207 0.500000 0.691893 T T T
0.969207 0.500000 0.741093 T T T
0.969207 0.500000 0.790293 T T T
0.969207 0.500000 0.839493 T T T
0.969207 0.500000 0.888693 T T T
0.969207 0.500000 0.937893 T T T
0.969207 0.500000 0.987093 T T T
0.094207 0.500000 0.667293 T T T
0.094207 0.500000 0.716493 T T T
0.094207 0.500000 0.765693 T T T
0.094207 0.500000 0.814893 T T T
0.094207 0.500000 0.864093 T T T
0.094207 0.500000 0.913293 T T T
0.094207 0.500000 0.962493 T T T
0.052547 0.500000 0.691893 T T T
0.052547 0.500000 0.741093 T T T
0.052547 0.500000 0.790293 T T T
0.052547 0.500000 0.839493 T T T
0.052547 0.500000 0.888693 T T T
0.052547 0.500000 0.937893 T T T
0.052547 0.500000 0.987093 T T T
0.177547 0.500000 0.667293 T T T
0.177547 0.500000 0.716493 T T T
0.177547 0.500000 0.765693 T T T
0.177547 0.500000 0.814893 T T T
0.177547 0.500000 0.864093 T T T
0.177547 0.500000 0.913293 T T T
0.177547 0.500000 0.962493 T T T
0.219207 0.500000 0.691893 T T T
0.219207 0.500000 0.741093 T T T
0.935927 0.500000 0.006843 T T T
0.085817 0.500000 0.006843 T T T
0.186057 0.500000 0.006863 T T T
0.335817 0.500000 0.006843 T T T
0.436057 0.500000 0.006863 T T T
0.585817 0.500000 0.006843 T T T
0.686057 0.500000 0.006863 T T T
0.835817 0.500000 0.006843 T T T
0.926100 0.500000 0.134310 F F F
0.783520 0.500000 0.134310 F F F
0.640670 0.500000 0.134310 F F F
0.497810 0.500000 0.134310 F F F
0.354950 0.500000 0.134310 F F F
0.212100 0.500000 0.134310 F F F
0.068960 0.500000 0.134310 F F F
0.454099 0.057336 0.497247 T T T
0.374152 0.364471 0.493948 T T T
0.147516 0.439213 0.507800 T T T
0.370951 0.741928 0.478965 T T T
0.969477 0.176721 0.481527 T T T
0.941856 0.250733 0.510843 T T T
0.678917 0.320832 0.474478 T T T
0.652469 0.371043 0.503046 T T T
0.761577 0.976230 0.513841 T T T
0.343696 0.310393 0.564074 T T T
0.244047 0.344319 0.556949 T T T
0.083578 0.595577 0.530267 T T T
0.176221 0.628185 0.554606 T T T
0.353885 0.266748 0.533111 T T T
0.642364 0.445318 0.538710 T T T
0.706253 0.858255 0.538948 T T T
0.840641 0.896653 0.556504 T T T
0.437519 0.957365 0.582647 T T T
0.107696 0.337510 0.626103 T T T
0.036219 0.697874 0.616274 T T T
0.282808 0.784814 0.635608 T T T
0.162414 0.933756 0.601718 T T T
0.049566 0.945897 0.603291 T T T
0.736159 0.406932 0.652953 T T T
0.846150 0.474221 0.629517 T T T
0.529278 0.891153 0.647462 T T T
0.471474 0.964462 0.634320 T T T
0.618361 0.982878 0.657047 T T T
