search
1.0
17.131700 0.000000 0.000000
0.000000 10.000000 0.000000
0.000000 0.000000 50.000000
C H 
227 73 
Selective dynamics
Direct
0.493838 0.500000 0.803771 T T T
0.493838 0.500000 0.852971 T T T
0.493838 0.500000 0.902171 T T T
0.493838 0.500000 0.951371 T T T
0.493838 0.500000 0.000571 T T T
0.618838 0.500000 0.680771 T T T
0.618838 0.500000 0.729971 T T T
0.618838 0.500000 0.779171 T T T
0.618838 0.500000 0.828371 T T T
0.618838 0.500000 0.877571 T T T
0.618838 0.500000 0.926771 T T T
0.618838 0.500000 0.975971 T T T
0.577178 0.500000 0.705371 T T T
0.577178 0.500000 0.754571 T T T
0.577178 0.500000 0.803771 T T T
0.577178 0.500000 0.852971 T T T
0.577178 0.500000 0.902171 T T T
0.577178 0.500000 0.951371 T T T
0.577178 0.500000 0.000571 T T T
0.702178 0.500000 0.680771 T T T
0.702178 0.500000 0.729971 T T T
0.702178 0.500000 0.779171 T T T
0.702178 0.500000 0.828371 T T T
0.702178 0.500000 0.877571 T T T
0.702178 0.500000 0.926771 T T T
0.702178 0.500000 0.975971 T T T
0.743838 0.500000 0.705371 T T T
0.743838 0.500000 0.754571 T T T
0.743838 0.500000 0.803771 T T T
0.743838 0.500000 0.852971 T T T
0.743838 0.500000 0.902171 T T T
0.743838 0.500000 0.951371 T T T
0.743838 0.500000 0.000571 T T T
0.868838 0.500000 0.680771 T T T
0.868838 0.500000 0.729971 T T T
0.868838 0.500000 0.779171 T T T
0.868838 0.500000 0.828371 T T T
0.868838 0.500000 0.877571 T T T
0.868838 0.500000 0.926771 T T T
0.868838 0.500000 0.975971 T T T
0.827178 0.500000 0.705371 T T T
0.827178 0.500000 0.754571 T T T
0.827178 0.500000 0.803771 T T T
0.827178 0.500000 0.852971 T T T
0.827178 0.500000 0.902171 T T T
0.827178 0.500000 0.951371 T T T
0.827178 0.500000 0.000571 T T T
0.952178 0.500000 0.680771 T T T
0.952178 0.500000 0.729971 T T T
0.952178 0.500000 0.779171 T T T
0.952178 0.500000 0.828371 T T T
0.952178 0.500000 0.877571 T T T
0.952178 0.500000 0.926771 T T T
0.952178 0.500000 0.975971 T T T
0.993838 0.500000 0.705371 T T T
0.993838 0.500000 0.754571 T T T
0.993838 0.500000 0.803771 T T T
0.993838 0.500000 0.852971 T T T
0.993838 0.500000 0.902171 T T T
0.993838 0.500000 0.951371 T T T
0.993838 0.500000 0.000571 T T T
0.118838 0.500000 0.680771 T T T
0.118838 0.500000 0.729971 T T T
0.118838 0.500000 0.779171 T T T
0.118838 0.500000 0.828371 T T T
0.118838 0.500000 0.877571 T T T
0.118838 0.500000 0.926771 T T T
0.118838 0.500000 0.975971 T T T
0.077178 0.500000 0.705371 T T T
0.077178 0.500000 0.754571 T T T
0.077178 0.500000 0.803771 T T T
0.077178 0.500000 0.852971 T T T
0.077178 0.500000 0.902171 T T T
0.077178 0.500000 0.951371 T T T
0.077178 0.500000 0.000571 T T T
0.202178 0.500000 0.680771 T T T
0.202178 0.500000 0.729971 T T T
0.202178 0.500000 0.779171 T T T
0.202178 0.500000 0.828371 T T T
0.202178 0.500000 0.877571 T T T
0.202178 0.500000 0.926771 T T T
0.202178 0.500000 0.975971 T T T
0.997670 0.500000 0.171310 F F F
0.997670 0.500000 0.256530 F F F
0.997670 0.500000 0.341750 F F F
0.997670 0.500000 0.426960 F F F
0.997670 0.500000 0.199720 F F F
0.997670 0.500000 0.284930 F F F
0.997670 0.500000 0.370150 F F F
0.997670 0.500000 0.455370 F F F
0.926240 0.500000 0.213920 F F F
0.926240 0.500000 0.299140 F F F
0.926240 0.500000 0.384350 F F F
0.926240 0.500000 0.469570 F F F
0.926240 0.500000 0.157110 F F F
0.926240 0.500000 0.242330 F F F
0.926240 0.500000 0.327540 F F F
0.926240 0.500000 0.412760 F F F
0.854810 0.500000 0.171310 F F F
0.854810 0.500000 0.256530 F F F
0.854810 0.500000 0.341750 F F F
0.854810 0.500000 0.426960 F F F
0.783380 0.500000 0.213920 F F F
0.783380 0.500000 0.299140 F F F
0.783380 0.500000 0.384350 F F F
0.783380 0.500000 0.469570 F F F
0.854810 0.500000 0.199720 F F F
0.854810 0.500000 0.284930 F F F
0.854810 0.500000 0.370150 F F F
0.854810 0.500000 0.455370 F F F
0.783380 0.500000 0.157110 F F F
0.783380 0.500000 0.242330 F F F
0.783380 0.500000 0.327540 F F F
0.783380 0.500000 0.412760 F F F
0.711960 0.500000 0.171310 F F F
0.711960 0.500000 0.256530 F F F
0.711960 0.500000 0.341750 F F F
0.711960 0.500000 0.426960 F F F
0.640530 0.500000 0.213920 F F F
0.640530 0.500000 0.299140 F F F
0.640530 0.500000 0.384350 F F F
0.640530 0.500000 0.469570 F F F
0.711960 0.500000 0.199720 F F F
0.711960 0.500000 0.284930 F F F
0.711960 0.500000 0.370150 F F F
0.711960 0.500000 0.455370 F F F
0.640530 0.500000 0.157110 F F F
0.640530 0.500000 0.242330 F F F
0.640530 0.500000 0.327540 F F F
0.640530 0.500000 0.412760 F F F
0.569100 0.500000 0.171310 F F F
0.569100 0.500000 0.256530 F F F
0.569100 0.500000 0.341750 F F F
0.569100 0.500000 0.426960 F F F
0.497670 0.500000 0.213920 F F F
0.497670 0.500000 0.299140 F F F
0.497670 0.500000 0.384350 F F F
0.497670 0.500000 0.469570 F F F
0.569100 0.500000 0.199720 F F F
0.569100 0.500000 0.284930 F F F
0.569100 0.500000 0.370150 F F F
0.569100 0.500000 0.455370 F F F
0.497670 0.500000 0.157110 F F F
0.497670 0.500000 0.242330 F F F
0.497670 0.500000 0.327540 F F F
0.497670 0.500000 0.412760 F F F
0.426240 0.500000 0.171310 F F F
0.426240 0.500000 0.256530 F F F
0.426240 0.500000 0.341750 F F F
0.426240 0.500000 0.426960 F F F
0.354810 0.500000 0.213920 F F F
0.354810 0.500000 0.299140 F F F
0.354810 0.500000 0.384350 F F F
0.354810 0.500000 0.469570 F F F
0.426240 0.500000 0.199720 F F F
0.426240 0.500000 0.284930 F F F
0.426240 0.500000 0.370150 F F F
0.426240 0.500000 0.455370 F F F
0.354810 0.500000 0.157110 F F F
0.354810 0.500000 0.242330 F F F
0.354810 0.500000 0.327540 F F F
0.354810 0.500000 0.412760 F F F
0.283380 0.500000 0.171310 F F F
0.283380 0.500000 0.256530 F F F
0.283380 0.500000 0.341750 F F F
0.283380 0.500000 0.426960 F F F
0.211960 0.500000 0.213920 F F F
0.211960 0.500000 0.299140 F F F
0.211960 0.500000 0.384350 F F F
0.211960 0.500000 0.469570 F F F
0.283380 0.500000 0.199720 F F F
0.283380 0.500000 0.284930 F F F
0.283380 0.500000 0.370150 F F F
0.283380 0.500000 0.455370 F F F
0.211960 0.500000 0.157110 F F F
0.211960 0.500000 0.242330 F F F
0.211960 0.500000 0.327540 F F F
0.211960 0.500000 0.412760 F F F
0.140530 0.500000 0.171310 F F F
0.140530 0.500000 0.256530 F F F
0.140530 0.500000 0.341750 F F F
0.140530 0.500000 0.426960 F F F
0.069100 0.500000 0.213920 F F F
0.069100 0.500000 0.299140 F F F
0.069100 0.500000 0.384350 F F F
0.069100 0.500000 0.469570 F F F
0.140530 0.500000 0.199720 F F F
0.140530 0.500000 0.284930 F F F
0.140530 0.500000 0.370150 F F F
0.140530 0.500000 0.455370 F F F
0.069100 0.500000 0.157110 F F F
0.069100 0.500000 0.242330 F F F
0.069100 0.500000 0.327540 F F F
0.069100 0.500000 0.412760 F F F
0.589509 0.014376 0.470002 T T T
0.175556 0.318153 0.513932 T T T
0.140040 0.596938 0.482934 T T T
0.217859 0.621221 0.536787 T T T
0.309139 0.610752 0.487441 T T T
0.445592 0.107029 0.481661 T T T
0.309626 0.094483 0.549675 T T T
0.273849 0.191177 0.511894 T T T
0.403668 0.344526 0.491313 T T T
0.713034 0.545364 0.486866 T T T
0.715546 0.926967 0.532155 T T T
0.955024 0.049235 0.636682 T T T
0.276187 0.374420 0.630420 T T T
0.923129 0.237559 0.529423 T T T
0.823809 0.618311 0.590720 T T T
0.542534 0.931580 0.550994 T T T
0.424848 0.207035 0.553350 T T T
0.561491 0.517768 0.588241 T T T
0.704838 0.513271 0.600372 T T T
0.981390 0.586435 0.582546 T T T
0.604031 0.575141 0.565039 T T T
0.433349 0.803840 0.606864 T T T
0.426373 0.934422 0.617226 T T T
0.243378 0.974964 0.641811 T T T
0.317744 0.632898 0.656416 T T T
0.306990 0.753872 0.671052 T T T
0.310916 0.026720 0.644972 T T T
0.865032 0.189854 0.679203 T T T
0.123503 0.445534 0.619659 T T T
0.002916 0.383356 0.632113 T T T
0.840765 0.662944 0.677681 T T T
0.985319 0.807329 0.599058 T T T
0.433101 0.850338 0.679203 T T T
0.243838 0.500000 0.705371 T T T
0.243838 0.500000 0.754571 T T T
0.243838 0.500000 0.803771 T T T
0.243838 0.500000 0.852971 T T T
0.243838 0.500000 0.902171 T T T
0.243838 0.500000 0.951371 T T T
0.243838 0.500000 0.000571 T T T
0.368838 0.500000 0.680771 T T T
0.368838 0.500000 0.729971 T T T
0.368838 0.500000 0.779171 T T T
0.368838 0.500000 0.828371 T T T
0.368838 0.500000 0.877571 T T T
0.368838 0.500000 0.926771 T T T
0.368838 0.500000 0.975971 T T T
0.327178 0.500000 0.705371 T T T
0.327178 0.500000 0.754571 T T T
0.327178 0.500000 0.803771 T T T
0.327178 0.500000 0.852971 T T T
0.327178 0.500000 0.902171 T T T
0.327178 0.500000 0.951371 T T T
0.327178 0.500000 0.000571 T T T
0.452178 0.500000 0.680771 T T T
0.452178 0.500000 0.729971 T T T
0.452178 0.500000 0.779171 T T T
0.452178 0.500000 0.828371 T T T
0.452178 0.500000 0.877571 T T T
0.452178 0.500000 0.926771 T T T
0.452178 0.500000 0.975971 T T T
0.493838 0.500000 0.705371 T T T
0.493838 0.500000 0.754571 T T T
0.210558 0.500000 0.020321 T T T
0.360448 0.500000 0.020321 T T T
0.460688 0.500000 0.020341 T T T
0.610448 0.500000 0.020321 T T T
0.710688 0.500000 0.020341 T T T
0.860448 0.500000 0.020321 T T T
0.960688 0.500000 0.020341 T T T
0.110448 0.500000 0.020321 T T T
0.926100 0.500000 0.134310 F F F
0.783520 0.500000 0.134310 F F F
0.640670 0.500000 0.134310 F F F
0.497810 0.500000 0.134310 F F F
0.354950 0.500000 0.134310 F F F
0.212100 0.500000 0.134310 F F F
0.068960 0.500000 0.134310 F F F
0.397334 0.246343 0.507653 T T T
0.899400 0.328065 0.523607 T T T
0.329989 0.693763 0.534785 T T T
0.699690 0.736003 0.494363 T T T
0.577800 0.535493 0.520490 T T T
0.537968 0.557067 0.525386 T T T
0.030009 0.332281 0.504881 T T T
0.075339 0.464603 0.508409 T T T
0.720824 0.723358 0.508578 T T T
0.434017 0.708512 0.594507 T T T
0.277147 0.195645 0.603671 T T T
0.146444 0.209035 0.560467 T T T
0.075597 0.818649 0.557348 T T T
0.580786 0.999171 0.561629 T T T
0.682074 0.267275 0.501109 T T T
0.328648 0.525551 0.597446 T T T
0.307287 0.709800 0.568561 T T T
0.934844 0.932581 0.555774 T T T
0.020002 0.139207 0.670210 T T T
0.118319 0.388954 0.676792 T T T
0.731768 0.408563 0.665670 T T T
0.277150 0.574767 0.647843 T T T
0.146216 0.292991 0.592179 T T T
0.577305 0.325353 0.557258 T T T
0.551440 0.656475 0.592124 T T T
0.985172 0.676304 0.598645 T T T
0.706709 0.814406 0.635066 T T T
0.617529 0.617177 0.641220 T T T
