search
1.0
17.131700 0.000000 0.000000
0.000000 10.000000 0.000000
0.000000 0.000000 50.000000
C H 
227 73 
Selective dynamics
Direct
0.137119 0.500000 0.784521 T T T
0.137119 0.500000 0.833721 T T T
0.137119 0.500000 0.882921 T T T
0.137119 0.500000 0.932121 T T T
0.137119 0.500000 0.981321 T T T
0.262119 0.500000 0.661521 T T T
0.262119 0.500000 0.710721 T T T
0.262119 0.500000 0.759921 T T T
0.262119 0.500000 0.809121 T T T
0.262119 0.500000 0.858321 T T T
0.262119 0.500000 0.907521 T T T
0.262119 0.500000 0.956721 T T T
0.220459 0.500000 0.686121 T T T
0.220459 0.500000 0.735321 T T T
0.220459 0.500000 0.784521 T T T
0.220459 0.500000 0.833721 T T T
0.220459 0.500000 0.882921 T T T
0.220459 0.500000 0.932121 T T T
0.220459 0.500000 0.981321 T T T
0.345459 0.500000 0.661521 T T T
0.345459 0.500000 0.710721 T T T
0.345459 0.500000 0.759921 T T T
0.345459 0.500000 0.809121 T T T
0.345459 0.500000 0.858321 T T T
0.345459 0.500000 0.907521 T T T
0.345459 0.500000 0.956721 T T T
0.387119 0.500000 0.686121 T T T
0.387119 0.500000 0.735321 T T T
0.387119 0.500000 0.784521 T T T
0.387119 0.500000 0.833721 T T T
0.387119 0.500000 0.882921 T T T
0.387119 0.500000 0.932121 T T T
0.387119 0.500000 0.981321 T T T
0.512119 0.500000 0.661521 T T T
0.512119 0.500000 0.710721 T T T
0.512119 0.500000 0.759921 T T T
0.512119 0.500000 0.809121 T T T
0.512119 0.500000 0.858321 T T T
0.512119 0.500000 0.907521 T T T
0.512119 0.500000 0.956721 T T T
0.470459 0.500000 0.686121 T T T
0.470459 0.500000 0.735321 T T T
0.470459 0.500000 0.784521 T T T
0.470459 0.500000 0.833721 T T T
0.470459 0.500000 0.882921 T T T
0.470459 0.500000 0.932121 T T T
0.470459 0.500000 0.981321 T T T
0.595459 0.500000 0.661521 T T T
0.595459 0.500000 0.710721 T T T
0.595459 0.500000 0.759921 T T T
0.595459 0.500000 0.809121 T T T
0.595459 0.500000 0.858321 T T T
0.595459 0.500000 0.907521 T T T
0.595459 0.500000 0.956721 T T T
0.637119 0.500000 0.686121 T T T
0.637119 0.500000 0.735321 T T T
0.637119 0.500000 0.784521 T T T
0.637119 0.500000 0.833721 T T T
0.637119 0.500000 0.882921 T T T
0.637119 0.500000 0.932121 T T T
0.637119 0.500000 0.981321 T T T
0.762119 0.500000 0.661521 T T T
0.762119 0.500000 0.710721 T T T
0.762119 0.500000 0.759921 T T T
0.762119 0.500000 0.809121 T T T
0.762119 0.500000 0.858321 T T T
0.762119 0.500000 0.907521 T T T
0.762119 0.500000 0.956721 T T T
0.720459 0.500000 0.686121 T T T
0.720459 0.500000 0.735321 T T T
0.720459 0.500000 0.784521 T T T
0.720459 0.500000 0.833721 T T T
0.720459 0.500000 0.882921 T T T
0.720459 0.500000 0.932121 T T T
0.720459 0.500000 0.981321 T T T
0.845459 0.500000 0.661521 T T T
0.845459 0.500000 0.710721 T T T
0.845459 0.500000 0.759921 T T T
0.845459 0.500000 0.809121 T T T
0.845459 0.500000 0.858321 T T T
0.845459 0.500000 0.907521 T T T
0.845459 0.500000 0.956721 T T T
0.997670 0.500000 0.171310 F F F
0.997670 0.500000 0.256530 F F F
0.997670 0.500000 0.341750 F F F
0.997670 0.500000 0.426960 F F F
0.997670 0.500000 0.199720 F F F
0.997670 0.500000 0.284930 F F F
0.997670 0.500000 0.370150 F F F
0.997670 0.500000 0.455370 F F F
0.926240 0.500000 0.213920 F F F
0.926240 0.500000 0.299140 F F F
0.926240 0.500000 0.384350 F F F
0.926240 0.500000 0.469570 F F F
0.926240 0.500000 0.157110 F F F
0.926240 0.500000 0.242330 F F F
0.926240 0.500000 0.327540 F F F
0.926240 0.500000 0.412760 F F F
0.854810 0.500000 0.171310 F F F
0.854810 0.500000 0.256530 F F F
0.854810 0.500000 0.341750 F F F
0.854810 0.500000 0.426960 F F F
0.783380 0.500000 0.213920 F F F
0.783380 0.500000 0.299140 F F F
0.783380 0.500000 0.384350 F F F
0.783380 0.500000 0.469570 F F F
0.854810 0.500000 0.199720 F F F
0.854810 0.500000 0.284930 F F F
0.854810 0.500000 0.370150 F F F
0.854810 0.500000 0.455370 F F F
0.783380 0.500000 0.157110 F F F
0.783380 0.500000 0.242330 F F F
0.783380 0.500000 0.327540 F F F
0.783380 0.500000 0.412760 F F F
0.711960 0.500000 0.171310 F F F
0.711960 0.500000 0.256530 F F F
0.711960 0.500000 0.341750 F F F
0.711960 0.500000 0.426960 F F F
0.640530 0.500000 0.213920 F F F
0.640530 0.500000 0.299140 F F F
0.640530 0.500000 0.384350 F F F
0.640530 0.500000 0.469570 F F F
0.711960 0.500000 0.199720 F F F
0.711960 0.500000 0.284930 F F F
0.711960 0.500000 0.370150 F F F
0.711960 0.500000 0.455370 F F F
0.640530 0.500000 0.157110 F F F
0.640530 0.500000 0.242330 F F F
0.640530 0.500000 0.327540 F F F
0.640530 0.500000 0.412760 F F F
0.569100 0.500000 0.171310 F F F
0.569100 0.500000 0.256530 F F F
0.569100 0.500000 0.341750 F F F
0.569100 0.500000 0.426960 F F F
0.497670 0.500000 0.213920 F F F
0.497670 0.500000 0.299140 F F F
0.497670 0.500000 0.384350 F F F
0.497670 0.500000 0.469570 F F F
0.569100 0.500000 0.199720 F F F
0.569100 0.500000 0.284930 F F F
0.569100 0.500000 0.370150 F F F
0.569100 0.500000 0.455370 F F F
0.497670 0.500000 0.157110 F F F
0.497670 0.500000 0.242330 F F F
0.497670 0.500000 0.327540 F F F
0.497670 0.500000 0.412760 F F F
0.426240 0.500000 0.171310 F F F
0.426240 0.500000 0.256530 F F F
0.426240 0.500000 0.341750 F F F
0.426240 0.500000 0.426960 F F F
0.354810 0.500000 0.213920 F F F
0.354810 0.500000 0.299140 F F F
0.354810 0.500000 0.384350 F F F
0.354810 0.500000 0.469570 F F F
0.426240 0.500000 0.199720 F F F
0.426240 0.500000 0.284930 F F F
0.426240 0.500000 0.370150 F F F
0.426240 0.500000 0.455370 F F F
0.354810 0.500000 0.157110 F F F
0.354810 0.500000 0.242330 F F F
0.354810 0.500000 0.327540 F F F
0.354810 0.500000 0.412760 F F F
0.283380 0.500000 0.171310 F F F
0.283380 0.500000 0.256530 F F F
0.283380 0.500000 0.341750 F F F
0.283380 0.500000 0.426960 F F F
0.211960 0.500000 0.213920 F F F
0.211960 0.500000 0.299140 F F F
0.211960 0.500000 0.384350 F F F
0.211960 0.500000 0.469570 F F F
0.283380 0.500000 0.199720 F F F
0.283380 0.500000 0.284930 F F F
0.283380 0.500000 0.370150 F F F
0.283380 0.500000 0.455370 F F F
0.211960 0.500000 0.157110 F F F
0.211960 0.500000 0.242330 F F F
0.211960 0.500000 0.327540 F F F
0.211960 0.500000 0.412760 F F F
0.140530 0.500000 0.171310 F F F
0.140530 0.500000 0.256530 F F F
0.140530 0.500000 0.341750 F F F
0.140530 0.500000 0.426960 F F F
0.069100 0.500000 0.213920 F F F
0.069100 0.500000 0.299140 F F F
0.069100 0.500000 0.384350 F F F
0.069100 0.500000 0.469570 F F F
0.140530 0.500000 0.199720 F F F
0.140530 0.500000 0.284930 F F F
0.140530 0.500000 0.370150 F F F
0.140530 0.500000 0.455370 F F F
0.069100 0.500000 0.157110 F F F
0.069100 0.500000 0.242330 F F F
0.069100 0.500000 0.327540 F F F
0.069100 0.500000 0.412760 F F F
0.045571 0.685834 0.495981 T T T
0.065448 0.531584 0.508732 T T T
0.979920 0.554891 0.492981 T T T
0.775123 0.542274 0.502220 T T T
0.031638 0.918595 0.507625 T T T
0.615271 0.983905 0.473657 T T T
0.908347 0.791258 0.507068 T T T
0.621265 0.838639 0.482488 T T T
0.636484 0.491325 0.501928 T T T
0.832873 0.904630 0.474711 T T T
0.393793 0.219048 0.494464 T T T
0.226029 0.637194 0.547464 T T T
0.268416 0.605738 0.586750 T T T
0.739761 0.670980 0.518255 T T T
0.607999 0.121081 0.527869 T T T
0.928953 0.269687 0.599358 T T T
0.464476 0.871396 0.539143 T T T
0.824358 0.197352 0.470007 T T T
0.332860 0.436114 0.494362 T T T
0.898231 0.232670 0.521582 T T T
0.046033 0.077126 0.554416 T T T
0.010792 0.999445 0.531948 T T T
0.405247 0.777239 0.606524 T T T
0.808947 0.286417 0.620673 T T T
0.644347 0.363869 0.633985 T T T
0.945920 0.715403 0.637370 T T T
0.795193 0.944595 0.660005 T T T
0.999638 0.292281 0.609009 T T T
0.464526 0.102619 0.661621 T T T
0.720376 0.981162 0.659999 T T T
0.211034 0.441695 0.584560 T T T
0.797612 0.364686 0.646358 T T T
0.080611 0.903710 0.634427 T T T
0.887119 0.500000 0.686121 T T T
0.887119 0.500000 0.735321 T T T
0.887119 0.500000 0.784521 T T T
0.887119 0.500000 0.833721 T T T
0.887119 0.500000 0.882921 T T T
0.887119 0.500000 0.932121 T T T
0.887119 0.500000 0.981321 T T T
0.012119 0.500000 0.661521 T T T
0.012119 0.500000 0.710721 T T T
0.012119 0.500000 0.759921 T T T
0.012119 0.500000 0.809121 T T T
0.012119 0.500000 0.858321 T T T
0.012119 0.500000 0.907521 T T T
0.012119 0.500000 0.956721 T T T
0.970459 0.500000 0.686121 T T T
0.970459 0.500000 0.735321 T T T
0.970459 0.500000 0.784521 T T T
0.970459 0.500000 0.833721 T T T
0.970459 0.500000 0.882921 T T T
0.970459 0.500000 0.932121 T T T
0.970459 0.500000 0.981321 T T T
0.095459 0.500000 0.661521 T T T
0.095459 0.500000 0.710721 T T T
0.095459 0.500000 0.759921 T T T
0.095459 0.500000 0.809121 T T T
0.095459 0.500000 0.858321 T T T
0.095459 0.500000 0.907521 T T T
0.095459 0.500000 0.956721 T T T
0.137119 0.500000 0.686121 T T T
0.137119 0.500000 0.735321 T T T
0.853839 0.500000 0.001071 T T T
0.003729 0.500000 0.001071 T T T
0.103969 0.500000 0.001091 T T T
0.253729 0.500000 0.001071 T T T
0.353969 0.500000 0.001091 T T T
0.503729 0.500000 0.001071 T T T
0.603969 0.500000 0.001091 T T T
0.753729 0.500000 0.001071 T T T
0.926100 0.500000 0.134310 F F F
0.783520 0.500000 0.134310 F F F
0.640670 0.500000 0.134310 F F F
0.497810 0.500000 0.134310 F F F
0.354950 0.500000 0.134310 F F F
0.212100 0.500000 0.134310 F F F
0.068960 0.500000 0.134310 F F F
0.633645 0.214814 0.566396 T T T
0.535154 0.282335 0.469996 T T T
0.826202 0.337987 0.540652 T T T
0.400079 0.661460 0.478451 T T T
0.647551 0.246256 0.507054 T T T
0.033680 0.082248 0.520599 T T T
0.657454 0.378728 0.495602 T T T
0.697163 0.517017 0.482234 T T T
0.348321 0.362997 0.556221 T T T
0.353722 0.423599 0.582481 T T T
0.552180 0.821703 0.570400 T T T
0.583917 0.054184 0.484274 T T T
0.345723 0.815485 0.606494 T T T
0.088569 0.984654 0.613158 T T T
0.152352 0.222839 0.516214 T T T
0.479769 0.454556 0.565061 T T T
0.495807 0.926563 0.523778 T T T
0.248654 0.104745 0.574843 T T T
0.364803 0.049830 0.631732 T T T
0.990556 0.187511 0.577808 T T T
0.989129 0.490419 0.633908 T T T
0.376637 0.468063 0.593639 T T T
0.082335 0.040190 0.644653 T T T
0.344506 0.022134 0.645711 T T T
0.132278 0.169816 0.660197 T T T
0.781996 0.630959 0.637938 T T T
0.353183 0.485698 0.614341 T T T
0.520566 0.661006 0.638550 T T T
