search
1.0
17.131700 0.000000 0.000000
0.000000 10.000000 0.000000
0.000000 0.000000 50.000000
C H 
227 73 
Selective dynamics
Direct
0.502825 0.500000 0.784730 T T T
0.502825 0.500000 0.833930 T T T
0.502825 0.500000 0.883130 T T T
0.502825 0.500000 0.932330 T T T
0.502825 0.500000 0.981530 T T T
0.627825 0.500000 0.661730 T T T
0.627825 0.500000 0.710930 T T T
0.627825 0.500000 0.760130 T T T
0.627825 0.500000 0.809330 T T T
0.627825 0.500000 0.858530 T T T
0.627825 0.500000 0.907730 T T T
0.627825 0.500000 0.956930 T T T
0.586165 0.500000 0.686330 T T T
0.586165 0.500000 0.735530 T T T
0.586165 0.500000 0.784730 T T T
0.586165 0.500000 0.833930 T T T
0.586165 0.500000 0.883130 T T T
0.586165 0.500000 0.932330 T T T
0.586165 0.500000 0.981530 T T T
0.711165 0.500000 0.661730 T T T
0.711165 0.500000 0.710930 T T T
0.711165 0.500000 0.760130 T T T
0.711165 0.500000 0.809330 T T T
0.711165 0.500000 0.858530 T T T
0.711165 0.500000 0.907730 T T T
0.711165 0.500000 0.956930 T T T
0.752825 0.500000 0.686330 T T T
0.752825 0.500000 0.735530 T T T
0.752825 0.500000 0.784730 T T T
0.752825 0.500000 0.833930 T T T
0.752825 0.500000 0.883130 T T T
0.752825 0.500000 0.932330 T T T
0.752825 0.500000 0.981530 T T T
0.877825 0.500000 0.661730 T T T
0.877825 0.500000 0.710930 T T T
0.877825 0.500000 0.760130 T T T
0.877825 0.500000 0.809330 T T T
0.877825 0.500000 0.858530 T T T
0.877825 0.500000 0.907730 T T T
0.877825 0.500000 0.956930 T T T
0.836165 0.500000 0.686330 T T T
0.836165 0.500000 0.735530 T T T
0.836165 0.500000 0.784730 T T T
0.836165 0.500000 0.833930 T T T
0.836165 0.500000 0.883130 T T T
0.836165 0.500000 0.932330 T T T
0.836165 0.500000 0.981530 T T T
0.961165 0.500000 0.661730 T T T
0.961165 0.500000 0.710930 T T T
0.961165 0.500000 0.760130 T T T
0.961165 0.500000 0.809330 T T T
0.961165 0.500000 0.858530 T T T
0.961165 0.500000 0.907730 T T T
0.961165 0.500000 0.956930 T T T
0.002825 0.500000 0.686330 T T T
0.002825 0.500000 0.735530 T T T
0.002825 0.500000 0.784730 T T T
0.002825 0.500000 0.833930 T T T
0.002825 0.500000 0.883130 T T T
0.002825 0.500000 0.932330 T T T
0.002825 0.500000 0.981530 T T T
0.127825 0.500000 0.661730 T T T
0.127825 0.500000 0.710930 T T T
0.127825 0.500000 0.760130 T T T
0.127825 0.500000 0.809330 T T T
0.127825 0.500000 0.858530 T T T
0.127825 0.500000 0.907730 T T T
0.127825 0.500000 0.956930 T T T
0.086165 0.500000 0.686330 T T T
0.086165 0.500000 0.735530 T T T
0.086165 0.500000 0.784730 T T T
0.086165 0.500000 0.833930 T T T
0.086165 0.500000 0.883130 T T T
0.086165 0.500000 0.932330 T T T
0.086165 0.500000 0.981530 T T T
0.211165 0.500000 0.661730 T T T
0.211165 0.500000 0.710930 T T T
0.211165 0.500000 0.760130 T T T
0.211165 0.500000 0.809330 T T T
0.211165 0.500000 0.858530 T T T
0.211165 0.500000 0.907730 T T T
0.211165 0.500000 0.956930 T T T
0.997670 0.500000 0.171310 F F F
0.997670 0.500000 0.256530 F F F
0.997670 0.500000 0.341750 F F F
0.997670 0.500000 0.426960 F F F
0.997670 0.500000 0.199720 F F F
0.997670 0.500000 0.284930 F F F
0.997670 0.500000 0.370150 F F F
0.997670 0.500000 0.455370 F F F
0.926240 0.500000 0.213920 F F F
0.926240 0.500000 0.299140 F F F
0.926240 0.500000 0.384350 F F F
0.926240 0.500000 0.469570 F F F
0.926240 0.500000 0.157110 F F F
0.926240 0.500000 0.242330 F F F
0.926240 0.500000 0.327540 F F F
0.926240 0.500000 0.412760 F F F
0.854810 0.500000 0.171310 F F F
0.854810 0.500000 0.256530 F F F
0.854810 0.500000 0.341750 F F F
0.854810 0.500000 0.426960 F F F
0.783380 0.500000 0.213920 F F F
0.783380 0.500000 0.299140 F F F
0.783380 0.500000 0.384350 F F F
0.783380 0.500000 0.469570 F F F
0.854810 0.500000 0.199720 F F F
0.854810 0.500000 0.284930 F F F
0.854810 0.500000 0.370150 F F F
0.854810 0.500000 0.455370 F F F
0.783380 0.500000 0.157110 F F F
0.783380 0.500000 0.242330 F F F
0.783380 0.500000 0.327540 F F F
0.783380 0.500000 0.412760 F F F
0.711960 0.500000 0.171310 F F F
0.711960 0.500000 0.256530 F F F
0.711960 0.500000 0.341750 F F F
0.711960 0.500000 0.426960 F F F
0.640530 0.500000 0.213920 F F F
0.640530 0.500000 0.299140 F F F
0.640530 0.500000 0.384350 F F F
0.640530 0.500000 0.469570 F F F
0.711960 0.500000 0.199720 F F F
0.711960 0.500000 0.284930 F F F
0.711960 0.500000 0.370150 F F F
0.711960 0.500000 0.455370 F F F
0.640530 0.500000 0.157110 F F F
0.640530 0.500000 0.242330 F F F
0.640530 0.500000 0.327540 F F F
0.640530 0.500000 0.412760 F F F
0.569100 0.500000 0.171310 F F F
0.569100 0.500000 0.256530 F F F
0.569100 0.500000 0.341750 F F F
0.569100 0.500000 0.426960 F F F
0.497670 0.500000 0.213920 F F F
0.497670 0.500000 0.299140 F F F
0.497670 0.500000 0.384350 F F F
0.497670 0.500000 0.469570 F F F
0.569100 0.500000 0.199720 F F F
0.569100 0.500000 0.284930 F F F
0.569100 0.500000 0.370150 F F F
0.569100 0.500000 0.455370 F F F
0.497670 0.500000 0.157110 F F F
0.497670 0.500000 0.242330 F F F
0.497670 0.500000 0.327540 F F F
0.497670 0.500000 0.412760 F F F
0.426240 0.500000 0.171310 F F F
0.426240 0.500000 0.256530 F F F
0.426240 0.500000 0.341750 F F F
0.426240 0.500000 0.426960 F F F
0.354810 0.500000 0.213920 F F F
0.354810 0.500000 0.299140 F F F
0.354810 0.500000 0.384350 F F F
0.354810 0.500000 0.469570 F F F
0.426240 0.500000 0.199720 F F F
0.426240 0.500000 0.284930 F F F
0.426240 0.500000 0.370150 F F F
0.426240 0.500000 0.455370 F F F
0.354810 0.500000 0.157110 F F F
0.354810 0.500000 0.242330 F F F
0.354810 0.500000 0.327540 F F F
0.354810 0.500000 0.412760 F F F
0.283380 0.500000 0.171310 F F F
0.283380 0.500000 0.256530 F F F
0.283380 0.500000 0.341750 F F F
0.283380 0.500000 0.426960 F F F
0.211960 0.500000 0.213920 F F F
0.211960 0.500000 0.299140 F F F
0.211960 0.500000 0.384350 F F F
0.211960 0.500000 0.469570 F F F
0.283380 0.500000 0.199720 F F F
0.283380 0.500000 0.284930 F F F
0.283380 0.500000 0.370150 F F F
0.283380 0.500000 0.455370 F F F
0.211960 0.500000 0.157110 F F F
0.211960 0.500000 0.242330 F F F
0.211960 0.500000 0.327540 F F F
0.211960 0.500000 0.412760 F F F
0.140530 0.500000 0.171310 F F F
0.140530 0.500000 0.256530 F F F
0.140530 0.500000 0.341750 F F F
0.140530 0.500000 0.426960 F F F
0.069100 0.500000 0.213920 F F F
0.069100 0.500000 0.299140 F F F
0.069100 0.500000 0.384350 F F F
0.069100 0.500000 0.469570 F F F
0.140530 0.500000 0.199720 F F F
0.140530 0.500000 0.284930 F F F
0.140530 0.500000 0.370150 F F F
0.140530 0.500000 0.455370 F F F
0.069100 0.500000 0.157110 F F F
0.069100 0.500000 0.242330 F F F
0.069100 0.500000 0.327540 F F F
0.069100 0.500000 0.412760 F F F
0.146341 0.931643 0.541289 T T T
0.240845 0.928807 0.501497 T T T
0.184976 0.921837 0.484295 T T T
0.705991 0.111880 0.518643 T T T
0.095741 0.496216 0.515533 T T T
0.482704 0.095160 0.497008 T T T
0.183371 0.169073 0.483682 T T T
0.773995 0.787140 0.487885 T T T
0.635017 0.457690 0.495256 T T T
0.743285 0.829926 0.465120 T T T
0.062074 0.058743 0.481324 T T T
0.039033 0.446007 0.596861 T T T
0.584038 0.748959 0.498581 T T T
0.231191 0.303675 0.553840 T T T
0.259745 0.635711 0.553350 T T T
0.124297 0.759886 0.563103 T T T
0.551116 0.384968 0.536701 T T T
0.384100 0.890652 0.521117 T T T
0.612756 0.937017 0.544260 T T T
0.904714 0.929895 0.514349 T T T
0.956394 0.699539 0.558689 T T T
0.474825 0.852094 0.567520 T T T
0.572124 0.053453 0.603053 T T T
0.460998 0.620700 0.575550 T T T
0.279573 0.394385 0.625839 T T T
0.444630 0.281577 0.659900 T T T
0.969054 0.853163 0.666872 T T T
0.880928 0.356911 0.602184 T T T
0.731638 0.251191 0.659962 T T T
0.800560 0.186628 0.659942 T T T
0.874762 0.874275 0.659877 T T T
0.703959 0.651768 0.561834 T T T
0.163451 0.934239 0.659999 T T T
0.252825 0.500000 0.686330 T T T
0.252825 0.500000 0.735530 T T T
0.252825 0.500000 0.784730 T T T
0.252825 0.500000 0.833930 T T T
0.252825 0.500000 0.883130 T T T
0.252825 0.500000 0.932330 T T T
0.252825 0.500000 0.981530 T T T
0.377825 0.500000 0.661730 T T T
0.377825 0.500000 0.710930 T T T
0.377825 0.500000 0.760130 T T T
0.377825 0.500000 0.809330 T T T
0.377825 0.500000 0.858530 T T T
0.377825 0.500000 0.907730 T T T
0.377825 0.500000 0.956930 T T T
0.336165 0.500000 0.686330 T T T
0.336165 0.500000 0.735530 T T T
0.336165 0.500000 0.784730 T T T
0.336165 0.500000 0.833930 T T T
0.336165 0.500000 0.883130 T T T
0.336165 0.500000 0.932330 T T T
0.336165 0.500000 0.981530 T T T
0.461165 0.500000 0.661730 T T T
0.461165 0.500000 0.710930 T T T
0.461165 0.500000 0.760130 T T T
0.461165 0.500000 0.809330 T T T
0.461165 0.500000 0.858530 T T T
0.461165 0.500000 0.907730 T T T
0.461165 0.500000 0.956930 T T T
0.502825 0.500000 0.686330 T T T
0.502825 0.500000 0.735530 T T T
0.219545 0.500000 0.001280 T T T
0.369435 0.500000 0.001280 T T T
0.469675 0.500000 0.001300 T T T
0.619435 0.500000 0.001280 T T T
0.719675 0.500000 0.001300 T T T
0.869435 0.500000 0.001280 T T T
0.969675 0.500000 0.001300 T T T
0.119435 0.500000 0.001280 T T T
0.926100 0.500000 0.134310 F F F
0.783520 0.500000 0.134310 F F F
0.640670 0.500000 0.134310 F F F
0.497810 0.500000 0.134310 F F F
0.354950 0.500000 0.134310 F F F
0.212100 0.500000 0.134310 F F F
0.068960 0.500000 0.134310 F F F
0.475291 0.279815 0.512877 T T T
0.443644 0.578578 0.501244 T T T
0.093318 0.335774 0.514230 T T T
0.933018 0.422349 0.543450 T T T
0.206159 0.283419 0.491511 T T T
0.368074 0.357757 0.473498 T T T
0.324668 0.414977 0.555272 T T T
0.819405 0.234158 0.487725 T T T
0.711171 0.319589 0.532207 T T T
0.101473 0.140787 0.628858 T T T
0.518506 0.915956 0.574911 T T T
0.268093 0.984986 0.518881 T T T
0.375871 0.614610 0.603504 T T T
0.205338 0.555297 0.550512 T T T
0.887575 0.826126 0.526327 T T T
0.664062 0.015929 0.580829 T T T
0.991319 0.639588 0.544723 T T T
0.043248 0.920405 0.564056 T T T
0.314226 0.353012 0.609514 T T T
0.374170 0.445031 0.628985 T T T
0.165953 0.467480 0.645689 T T T
0.794854 0.385028 0.635029 T T T
0.939502 0.957525 0.608304 T T T
0.309956 0.172495 0.603216 T T T
0.676519 0.549641 0.645522 T T T
0.934271 0.864131 0.644120 T T T
0.517432 0.811785 0.660000 T T T
0.957883 0.828860 0.608578 T T T
