search
1.0
17.131700 0.000000 0.000000
0.000000 10.000000 0.000000
0.000000 0.000000 50.000000
C H 
227 73 
Selective dynamics
Direct
0.238596 0.500000 0.821087 T T T
0.238596 0.500000 0.870287 T T T
0.238596 0.500000 0.919487 T T T
0.238596 0.500000 0.968687 T T T
0.238596 0.500000 0.017887 T T T
0.363596 0.500000 0.698087 T T T
0.363596 0.500000 0.747287 T T T
0.363596 0.500000 0.796487 T T T
0.363596 0.500000 0.845687 T T T
0.363596 0.500000 0.894887 T T T
0.363596 0.500000 0.944087 T T T
0.363596 0.500000 0.993287 T T T
0.321936 0.500000 0.722687 T T T
0.321936 0.500000 0.771887 T T T
0.321936 0.500000 0.821087 T T T
0.321936 0.500000 0.870287 T T T
0.321936 0.500000 0.919487 T T T
0.321936 0.500000 0.968687 T T T
0.321936 0.500000 0.017887 T T T
0.446936 0.500000 0.698087 T T T
0.446936 0.500000 0.747287 T T T
0.446936 0.500000 0.796487 T T T
0.446936 0.500000 0.845687 T T T
0.446936 0.500000 0.894887 T T T
0.446936 0.500000 0.944087 T T T
0.446936 0.500000 0.993287 T T T
0.488596 0.500000 0.722687 T T T
0.488596 0.500000 0.771887 T T T
0.488596 0.500000 0.821087 T T T
0.488596 0.500000 0.870287 T T T
0.488596 0.500000 0.919487 T T T
0.488596 0.500000 0.968687 T T T
0.488596 0.500000 0.017887 T T T
0.613596 0.500000 0.698087 T T T
0.613596 0.500000 0.747287 T T T
0.613596 0.500000 0.796487 T T T
0.613596 0.500000 0.845687 T T T
0.613596 0.500000 0.894887 T T T
0.613596 0.500000 0.944087 T T T
0.613596 0.500000 0.993287 T T T
0.571936 0.500000 0.722687 T T T
0.571936 0.500000 0.771887 T T T
0.571936 0.500000 0.821087 T T T
0.571936 0.500000 0.870287 T T T
0.571936 0.500000 0.919487 T T T
0.571936 0.500000 0.968687 T T T
0.571936 0.500000 0.017887 T T T
0.696936 0.500000 0.698087 T T T
0.696936 0.500000 0.747287 T T T
0.696936 0.500000 0.796487 T T T
0.696936 0.500000 0.845687 T T T
0.696936 0.500000 0.894887 T T T
0.696936 0.500000 0.944087 T T T
0.696936 0.500000 0.993287 T T T
0.738596 0.500000 0.722687 T T T
0.738596 0.500000 0.771887 T T T
0.738596 0.500000 0.821087 T T T
0.738596 0.500000 0.870287 T T T
0.738596 0.500000 0.919487 T T T
0.738596 0.500000 0.968687 T T T
0.738596 0.500000 0.017887 T T T
0.863596 0.500000 0.698087 T T T
0.863596 0.500000 0.747287 T T T
0.863596 0.500000 0.796487 T T T
0.863596 0.500000 0.845687 T T T
0.863596 0.500000 0.894887 T T T
0.863596 0.500000 0.944087 T T T
0.863596 0.500000 0.993287 T T T
0.821936 0.500000 0.722687 T T T
0.821936 0.500000 0.771887 T T T
0.821936 0.500000 0.821087 T T T
0.821936 0.500000 0.870287 T T T
0.821936 0.500000 0.919487 T T T
0.821936 0.500000 0.968687 T T T
0.821936 0.500000 0.017887 T T T
0.946936 0.500000 0.698087 T T T
0.946936 0.500000 0.747287 T T T
0.946936 0.500000 0.796487 T T T
0.946936 0.500000 0.845687 T T T
0.946936 0.500000 0.894887 T T T
0.946936 0.500000 0.944087 T T T
0.946936 0.500000 0.993287 T T T
0.997670 0.500000 0.171310 F F F
0.997670 0.500000 0.256530 F F F
0.997670 0.500000 0.341750 F F F
0.997670 0.500000 0.426960 F F F
0.997670 0.500000 0.199720 F F F
0.997670 0.500000 0.284930 F F F
0.997670 0.500000 0.370150 F F F
0.997670 0.500000 0.455370 F F F
0.926240 0.500000 0.213920 F F F
0.926240 0.500000 0.299140 F F F
0.926240 0.500000 0.384350 F F F
0.926240 0.500000 0.469570 F F F
0.926240 0.500000 0.157110 F F F
0.926240 0.500000 0.242330 F F F
0.926240 0.500000 0.327540 F F F
0.926240 0.500000 0.412760 F F F
0.854810 0.500000 0.171310 F F F
0.854810 0.500000 0.256530 F F F
0.854810 0.500000 0.341750 F F F
0.854810 0.500000 0.426960 F F F
0.783380 0.500000 0.213920 F F F
0.783380 0.500000 0.299140 F F F
0.783380 0.500000 0.384350 F F F
0.783380 0.500000 0.469570 F F F
0.854810 0.500000 0.199720 F F F
0.854810 0.500000 0.284930 F F F
0.854810 0.500000 0.370150 F F F
0.854810 0.500000 0.455370 F F F
0.783380 0.500000 0.157110 F F F
0.783380 0.500000 0.242330 F F F
0.783380 0.500000 0.327540 F F F
0.783380 0.500000 0.412760 F F F
0.711960 0.500000 0.171310 F F F
0.711960 0.500000 0.256530 F F F
0.711960 0.500000 0.341750 F F F
0.711960 0.500000 0.426960 F F F
0.640530 0.500000 0.213920 F F F
0.640530 0.500000 0.299140 F F F
0.640530 0.500000 0.384350 F F F
0.640530 0.500000 0.469570 F F F
0.711960 0.500000 0.199720 F F F
0.711960 0.500000 0.284930 F F F
0.711960 0.500000 0.370150 F F F
0.711960 0.500000 0.455370 F F F
0.640530 0.500000 0.157110 F F F
0.640530 0.500000 0.242330 F F F
0.640530 0.500000 0.327540 F F F
0.640530 0.500000 0.412760 F F F
0.569100 0.500000 0.171310 F F F
0.569100 0.500000 0.256530 F F F
0.569100 0.500000 0.341750 F F F
0.569100 0.500000 0.426960 F F F
0.497670 0.500000 0.213920 F F F
0.497670 0.500000 0.299140 F F F
0.497670 0.500000 0.384350 F F F
0.497670 0.500000 0.469570 F F F
0.569100 0.500000 0.199720 F F F
0.569100 0.500000 0.284930 F F F
0.569100 0.500000 0.370150 F F F
0.569100 0.500000 0.455370 F F F
0.497670 0.500000 0.157110 F F F
0.497670 0.500000 0.242330 F F F
0.497670 0.500000 0.327540 F F F
0.497670 0.500000 0.412760 F F F
0.426240 0.500000 0.171310 F F F
0.426240 0.500000 0.256530 F F F
0.426240 0.500000 0.341750 F F F
0.426240 0.500000 0.426960 F F F
0.354810 0.500000 0.213920 F F F
0.354810 0.500000 0.299140 F F F
0.354810 0.500000 0.384350 F F F
0.354810 0.500000 0.469570 F F F
0.426240 0.500000 0.199720 F F F
0.426240 0.500000 0.284930 F F F
0.426240 0.500000 0.370150 F F F
0.426240 0.500000 0.455370 F F F
0.354810 0.500000 0.157110 F F F
0.354810 0.500000 0.242330 F F F
0.354810 0.500000 0.327540 F F F
0.354810 0.500000 0.412760 F F F
0.283380 0.500000 0.171310 F F F
0.283380 0.500000 0.256530 F F F
0.283380 0.500000 0.341750 F F F
0.283380 0.500000 0.426960 F F F
0.211960 0.500000 0.213920 F F F
0.211960 0.500000 0.299140 F F F
0.211960 0.500000 0.384350 F F F
0.211960 0.500000 0.469570 F F F
0.283380 0.500000 0.199720 F F F
0.283380 0.500000 0.284930 F F F
0.283380 0.500000 0.370150 F F F
0.283380 0.500000 0.455370 F F F
0.211960 0.500000 0.157110 F F F
0.211960 0.500000 0.242330 F F F
0.211960 0.500000 0.327540 F F F
0.211960 0.500000 0.412760 F F F
0.140530 0.500000 0.171310 F F F
0.140530 0.500000 0.256530 F F F
0.140530 0.500000 0.341750 F F F
0.140530 0.500000 0.426960 F F F
0.069100 0.500000 0.213920 F F F
0.069100 0.500000 0.299140 F F F
0.069100 0.500000 0.384350 F F F
0.069100 0.500000 0.469570 F F F
0.140530 0.500000 0.199720 F F F
0.140530 0.500000 0.284930 F F F
0.140530 0.500000 0.370150 F F F
0.140530 0.500000 0.455370 F F F
0.069100 0.500000 0.157110 F F F
0.069100 0.500000 0.242330 F F F
0.069100 0.500000 0.327540 F F F
0.069100 0.500000 0.412760 F F F
0.008491 0.046330 0.525886 T T T
0.298047 0.292352 0.482728 T T T
0.010205 0.400631 0.505782 T T T
0.238552 0.772180 0.517071 T T T
0.317024 0.819790 0.517546 T T T
0.917489 0.072312 0.497493 T T T
0.818840 0.344531 0.514909 T T T
0.855954 0.616454 0.516332 T T T
0.663218 0.685094 0.501891 T T T
0.709193 0.705381 0.480817 T T T
0.777556 0.767859 0.483519 T T T
0.039002 0.040513 0.590214 T T T
0.381021 0.161388 0.552993 T T T
0.161705 0.404781 0.559898 T T T
0.109308 0.471920 0.581006 T T T
0.215579 0.486381 0.580924 T T T
0.603631 0.016446 0.547886 T T T
0.766835 0.104975 0.622194 T T T
0.662412 0.212794 0.622351 T T T
0.774745 0.484857 0.597743 T T T
0.897983 0.699539 0.577002 T T T
0.474909 0.782946 0.536743 T T T
0.169670 0.240366 0.661133 T T T
0.139662 0.422573 0.647953 T T T
0.006469 0.441472 0.684314 T T T
0.571408 0.644815 0.688447 T T T
0.002403 0.835050 0.626807 T T T
0.568254 0.186045 0.692131 T T T
0.862899 0.320681 0.635536 T T T
0.871152 0.375396 0.662779 T T T
0.955505 0.618173 0.649926 T T T
0.604276 0.906955 0.690025 T T T
0.980406 0.980947 0.693997 T T T
0.988596 0.500000 0.722687 T T T
0.988596 0.500000 0.771887 T T T
0.988596 0.500000 0.821087 T T T
0.988596 0.500000 0.870287 T T T
0.988596 0.500000 0.919487 T T T
0.988596 0.500000 0.968687 T T T
0.988596 0.500000 0.017887 T T T
0.113596 0.500000 0.698087 T T T
0.113596 0.500000 0.747287 T T T
0.113596 0.500000 0.796487 T T T
0.113596 0.500000 0.845687 T T T
0.113596 0.500000 0.894887 T T T
0.113596 0.500000 0.944087 T T T
0.113596 0.500000 0.993287 T T T
0.071936 0.500000 0.722687 T T T
0.071936 0.500000 0.771887 T T T
0.071936 0.500000 0.821087 T T T
0.071936 0.500000 0.870287 T T T
0.071936 0.500000 0.919487 T T T
0.071936 0.500000 0.968687 T T T
0.071936 0.500000 0.017887 T T T
0.196936 0.500000 0.698087 T T T
0.196936 0.500000 0.747287 T T T
0.196936 0.500000 0.796487 T T T
0.196936 0.500000 0.845687 T T T
0.196936 0.500000 0.894887 T T T
0.196936 0.500000 0.944087 T T T
0.196936 0.500000 0.993287 T T T
0.238596 0.500000 0.722687 T T T
0.238596 0.500000 0.771887 T T T
0.955316 0.500000 0.037637 T T T
0.105206 0.500000 0.037637 T T T
0.205446 0.500000 0.037657 T T T
0.355206 0.500000 0.037637 T T T
0.455446 0.500000 0.037657 T T T
0.605206 0.500000 0.037637 T T T
0.705446 0.500000 0.037657 T T T
0.855206 0.500000 0.037637 T T T
0.926100 0.500000 0.134310 F F F
0.783520 0.500000 0.134310 F F F
0.640670 0.500000 0.134310 F F F
0.497810 0.500000 0.134310 F F F
0.354950 0.500000 0.134310 F F F
0.212100 0.500000 0.134310 F F F
0.068960 0.500000 0.134310 F F F
0.297952 0.150926 0.521121 T T T
0.421263 0.718521 0.571725 T T T
0.294602 0.883097 0.474813 T T T
0.447671 0.904720 0.537704 T T T
0.791868 0.142409 0.474430 T T T
0.498777 0.293970 0.472866 T T T
0.856723 0.425248 0.502066 T T T
0.879373 0.442080 0.535275 T T T
0.590648 0.965753 0.567471 T T T
0.993010 0.106426 0.586050 T T T
0.138953 0.298243 0.613133 T T T
0.266336 0.395387 0.584286 T T T
0.319544 0.621731 0.616399 T T T
0.525570 0.302739 0.596638 T T T
0.928764 0.472361 0.571742 T T T
0.548156 0.600900 0.582952 T T T
0.483017 0.645863 0.621587 T T T
0.762789 0.741357 0.605337 T T T
0.313779 0.450014 0.694037 T T T
0.363252 0.470786 0.662088 T T T
0.573109 0.568427 0.668208 T T T
0.167801 0.775672 0.666781 T T T
0.598937 0.941708 0.625729 T T T
0.735186 0.635903 0.649794 T T T
0.761382 0.675584 0.664875 T T T
0.930354 0.757647 0.658661 T T T
0.870544 0.879975 0.654982 T T T
0.859614 0.892983 0.693027 T T T
