search
1.0
17.131700 0.000000 0.000000
0.000000 10.000000 0.000000
0.000000 0.000000 50.000000
C H 
227 73 
Selective dynamics
Direct
0.190627 0.500000 0.823960 T T T
0.190627 0.500000 0.873160 T T T
0.190627 0.500000 0.922360 T T T
0.190627 0.500000 0.971560 T T T
0.190627 0.500000 0.020760 T T T
0.315627 0.500000 0.700960 T T T
0.315627 0.500000 0.750160 T T T
0.315627 0.500000 0.799360 T T T
0.315627 0.500000 0.848560 T T T
0.315627 0.500000 0.897760 T T T
0.315627 0.500000 0.946960 T T T
0.315627 0.500000 0.996160 T T T
0.273967 0.500000 0.725560 T T T
0.273967 0.500000 0.774760 T T T
0.273967 0.500000 0.823960 T T T
0.273967 0.500000 0.873160 T T T
0.273967 0.500000 0.922360 T T T
0.273967 0.500000 0.971560 T T T
0.273967 0.500000 0.020760 T T T
0.398967 0.500000 0.700960 T T T
0.398967 0.500000 0.750160 T T T
0.398967 0.500000 0.799360 T T T
0.398967 0.500000 0.848560 T T T
0.398967 0.500000 0.897760 T T T
0.398967 0.500000 0.946960 T T T
0.398967 0.500000 0.996160 T T T
0.440627 0.500000 0.725560 T T T
0.440627 0.500000 0.774760 T T T
0.440627 0.500000 0.823960 T T T
0.440627 0.500000 0.873160 T T T
0.440627 0.500000 0.922360 T T T
0.440627 0.500000 0.971560 T T T
0.440627 0.500000 0.020760 T T T
0.565627 0.500000 0.700960 T T T
0.565627 0.500000 0.750160 T T T
0.565627 0.500000 0.799360 T T T
0.565627 0.500000 0.848560 T T T
0.565627 0.500000 0.897760 T T T
0.565627 0.500000 0.946960 T T T
0.565627 0.500000 0.996160 T T T
0.523967 0.500000 0.725560 T T T
0.523967 0.500000 0.774760 T T T
0.523967 0.500000 0.823960 T T T
0.523967 0.500000 0.873160 T T T
0.523967 0.500000 0.922360 T T T
0.523967 0.500000 0.971560 T T T
0.523967 0.500000 0.020760 T T T
0.648967 0.500000 0.700960 T T T
0.648967 0.500000 0.750160 T T T
0.648967 0.500000 0.799360 T T T
0.648967 0.500000 0.848560 T T T
0.648967 0.500000 0.897760 T T T
0.648967 0.500000 0.946960 T T T
0.648967 0.500000 0.996160 T T T
0.690627 0.500000 0.725560 T T T
0.690627 0.500000 0.774760 T T T
0.690627 0.500000 0.823960 T T T
0.690627 0.500000 0.873160 T T T
0.690627 0.500000 0.922360 T T T
0.690627 0.500000 0.971560 T T T
0.690627 0.500000 0.020760 T T T
0.815627 0.500000 0.700960 T T T
0.815627 0.500000 0.750160 T T T
0.815627 0.500000 0.799360 T T T
0.815627 0.500000 0.848560 T T T
0.815627 0.500000 0.897760 T T T
0.815627 0.500000 0.946960 T T T
0.815627 0.500000 0.996160 T T T
0.773967 0.500000 0.725560 T T T
0.773967 0.500000 0.774760 T T T
0.773967 0.500000 0.823960 T T T
0.773967 0.500000 0.873160 T T T
0.773967 0.500000 0.922360 T T T
0.773967 0.500000 0.971560 T T T
0.773967 0.500000 0.020760 T T T
0.898967 0.500000 0.700960 T T T
0.898967 0.500000 0.750160 T T T
0.898967 0.500000 0.799360 T T T
0.898967 0.500000 0.848560 T T T
0.898967 0.500000 0.897760 T T T
0.898967 0.500000 0.946960 T T T
0.898967 0.500000 0.996160 T T T
0.997670 0.500000 0.171310 F F F
0.997670 0.500000 0.256530 F F F
0.997670 0.500000 0.341750 F F F
0.997670 0.500000 0.426960 F F F
0.997670 0.500000 0.199720 F F F
0.997670 0.500000 0.284930 F F F
0.997670 0.500000 0.370150 F F F
0.997670 0.500000 0.455370 F F F
0.926240 0.500000 0.213920 F F F
0.926240 0.500000 0.299140 F F F
0.926240 0.500000 0.384350 F F F
0.926240 0.500000 0.469570 F F F
0.926240 0.500000 0.157110 F F F
0.926240 0.500000 0.242330 F F F
0.926240 0.500000 0.327540 F F F
0.926240 0.500000 0.412760 F F F
0.854810 0.500000 0.171310 F F F
0.854810 0.500000 0.256530 F F F
0.854810 0.500000 0.341750 F F F
0.854810 0.500000 0.426960 F F F
0.783380 0.500000 0.213920 F F F
0.783380 0.500000 0.299140 F F F
0.783380 0.500000 0.384350 F F F
0.783380 0.500000 0.469570 F F F
0.854810 0.500000 0.199720 F F F
0.854810 0.500000 0.284930 F F F
0.854810 0.500000 0.370150 F F F
0.854810 0.500000 0.455370 F F F
0.783380 0.500000 0.157110 F F F
0.783380 0.500000 0.242330 F F F
0.783380 0.500000 0.327540 F F F
0.783380 0.500000 0.412760 F F F
0.711960 0.500000 0.171310 F F F
0.711960 0.500000 0.256530 F F F
0.711960 0.500000 0.341750 F F F
0.711960 0.500000 0.426960 F F F
0.640530 0.500000 0.213920 F F F
0.640530 0.500000 0.299140 F F F
0.640530 0.500000 0.384350 F F F
0.640530 0.500000 0.469570 F F F
0.711960 0.500000 0.199720 F F F
0.711960 0.500000 0.284930 F F F
0.711960 0.500000 0.370150 F F F
0.711960 0.500000 0.455370 F F F
0.640530 0.500000 0.157110 F F F
0.640530 0.500000 0.242330 F F F
0.640530 0.500000 0.327540 F F F
0.640530 0.500000 0.412760 F F F
0.569100 0.500000 0.171310 F F F
0.569100 0.500000 0.256530 F F F
0.569100 0.500000 0.341750 F F F
0.569100 0.500000 0.426960 F F F
0.497670 0.500000 0.213920 F F F
0.497670 0.500000 0.299140 F F F
0.497670 0.500000 0.384350 F F F
0.497670 0.500000 0.469570 F F F
0.569100 0.500000 0.199720 F F F
0.569100 0.500000 0.284930 F F F
0.569100 0.500000 0.370150 F F F
0.569100 0.500000 0.455370 F F F
0.497670 0.500000 0.157110 F F F
0.497670 0.500000 0.242330 F F F
0.497670 0.500000 0.327540 F F F
0.497670 0.500000 0.412760 F F F
0.426240 0.500000 0.171310 F F F
0.426240 0.500000 0.256530 F F F
0.426240 0.500000 0.341750 F F F
0.426240 0.500000 0.426960 F F F
0.354810 0.500000 0.213920 F F F
0.354810 0.500000 0.299140 F F F
0.354810 0.500000 0.384350 F F F
0.354810 0.500000 0.469570 F F F
0.426240 0.500000 0.199720 F F F
0.426240 0.500000 0.284930 F F F
0.426240 0.500000 0.370150 F F F
0.426240 0.500000 0.455370 F F F
0.354810 0.500000 0.157110 F F F
0.354810 0.500000 0.242330 F F F
0.354810 0.500000 0.327540 F F F
0.354810 0.500000 0.412760 F F F
0.283380 0.500000 0.171310 F F F
0.283380 0.500000 0.256530 F F F
0.283380 0.500000 0.341750 F F F
0.283380 0.500000 0.426960 F F F
0.211960 0.500000 0.213920 F F F
0.211960 0.500000 0.299140 F F F
0.211960 0.500000 0.384350 F F F
0.211960 0.500000 0.469570 F F F
0.283380 0.500000 0.199720 F F F
0.283380 0.500000 0.284930 F F F
0.283380 0.500000 0.370150 F F F
0.283380 0.500000 0.455370 F F F
0.211960 0.500000 0.157110 F F F
0.211960 0.500000 0.242330 F F F
0.211960 0.500000 0.327540 F F F
0.211960 0.500000 0.412760 F F F
0.140530 0.500000 0.171310 F F F
0.140530 0.500000 0.256530 F F F
0.140530 0.500000 0.341750 F F F
0.140530 0.500000 0.426960 F F F
0.069100 0.500000 0.213920 F F F
0.069100 0.500000 0.299140 F F F
0.069100 0.500000 0.384350 F F F
0.069100 0.500000 0.469570 F F F
0.140530 0.500000 0.199720 F F F
0.140530 0.500000 0.284930 F F F
0.140530 0.500000 0.370150 F F F
0.140530 0.500000 0.455370 F F F
0.069100 0.500000 0.157110 F F F
0.069100 0.500000 0.242330 F F F
0.069100 0.500000 0.327540 F F F
0.069100 0.500000 0.412760 F F F
0.233181 0.012826 0.510135 T T T
0.482252 0.126453 0.520631 T T T
0.152282 0.423494 0.549460 T T T
0.042037 0.542671 0.503127 T T T
0.316645 0.734916 0.534940 T T T
0.729998 0.275159 0.552832 T T T
0.841590 0.371318 0.557355 T T T
0.791388 0.390608 0.514058 T T T
0.991060 0.450254 0.486613 T T T
0.771101 0.579263 0.514993 T T T
0.715606 0.639003 0.500706 T T T
0.463596 0.008934 0.565531 T T T
0.344416 0.379324 0.591818 T T T
0.059043 0.677815 0.606117 T T T
0.168609 0.831800 0.591035 T T T
0.552883 0.856874 0.561978 T T T
0.927993 0.042016 0.594049 T T T
0.569616 0.276531 0.598170 T T T
0.849085 0.330301 0.612977 T T T
0.567658 0.519612 0.592819 T T T
0.641107 0.796317 0.574430 T T T
0.643082 0.921299 0.589543 T T T
0.222745 0.492714 0.667305 T T T
0.227082 0.632487 0.692028 T T T
0.330439 0.632898 0.675603 T T T
0.454584 0.753872 0.655048 T T T
0.071450 0.799663 0.626983 T T T
0.719032 0.010141 0.697712 T T T
0.998464 0.251594 0.679392 T T T
0.654118 0.544179 0.623491 T T T
0.669031 0.641551 0.688752 T T T
0.768188 0.754162 0.635164 T T T
0.939178 0.763078 0.654427 T T T
0.940627 0.500000 0.725560 T T T
0.940627 0.500000 0.774760 T T T
0.940627 0.500000 0.823960 T T T
0.940627 0.500000 0.873160 T T T
0.940627 0.500000 0.922360 T T T
0.940627 0.500000 0.971560 T T T
0.940627 0.500000 0.020760 T T T
0.065627 0.500000 0.700960 T T T
0.065627 0.500000 0.750160 T T T
0.065627 0.500000 0.799360 T T T
0.065627 0.500000 0.848560 T T T
0.065627 0.500000 0.897760 T T T
0.065627 0.500000 0.946960 T T T
0.065627 0.500000 0.996160 T T T
0.023967 0.500000 0.725560 T T T
0.023967 0.500000 0.774760 T T T
0.023967 0.500000 0.823960 T T T
0.023967 0.500000 0.873160 T T T
0.023967 0.500000 0.922360 T T T
0.023967 0.500000 0.971560 T T T
0.023967 0.500000 0.020760 T T T
0.148967 0.500000 0.700960 T T T
0.148967 0.500000 0.750160 T T T
0.148967 0.500000 0.799360 T T T
0.148967 0.500000 0.848560 T T T
0.148967 0.500000 0.897760 T T T
0.148967 0.500000 0.946960 T T T
0.148967 0.500000 0.996160 T T T
0.190627 0.500000 0.725560 T T T
0.190627 0.500000 0.774760 T T T
0.907347 0.500000 0.040510 T T T
0.057237 0.500000 0.040510 T T T
0.157477 0.500000 0.040530 T T T
0.307237 0.500000 0.040510 T T T
0.407477 0.500000 0.040530 T T T
0.557237 0.500000 0.040510 T T T
0.657477 0.500000 0.040530 T T T
0.807237 0.500000 0.040510 T T T
0.926100 0.500000 0.134310 F F F
0.783520 0.500000 0.134310 F F F
0.640670 0.500000 0.134310 F F F
0.497810 0.500000 0.134310 F F F
0.354950 0.500000 0.134310 F F F
0.212100 0.500000 0.134310 F F F
0.068960 0.500000 0.134310 F F F
0.068348 0.037448 0.470762 T T T
0.313826 0.157260 0.529799 T T T
0.359957 0.723305 0.519281 T T T
0.049428 0.861318 0.508901 T T T
0.577788 0.088396 0.544591 T T T
0.818328 0.410020 0.536657 T T T
0.922886 0.418776 0.537628 T T T
0.471941 0.473856 0.512248 T T T
0.435302 0.912416 0.516716 T T T
0.436371 0.091918 0.570484 T T T
0.088113 0.498713 0.616602 T T T
0.511934 0.569588 0.581219 T T T
0.504198 0.923311 0.565799 T T T
0.866452 0.447598 0.604210 T T T
0.612530 0.580101 0.578047 T T T
0.539078 0.745113 0.609789 T T T
0.940432 0.951794 0.628724 T T T
0.977672 0.955551 0.548606 T T T
0.211693 0.127515 0.640518 T T T
0.131002 0.191037 0.697882 T T T
0.263659 0.447598 0.654486 T T T
0.053204 0.574767 0.659100 T T T
0.050375 0.584167 0.646207 T T T
0.534708 0.264626 0.657994 T T T
0.697814 0.274237 0.630165 T T T
0.611145 0.524302 0.659908 T T T
0.602418 0.733730 0.679619 T T T
0.828720 0.777705 0.632302 T T T
