search
1.0
17.131700 0.000000 0.000000
0.000000 10.000000 0.000000
0.000000 0.000000 50.000000
C H 
227 73 
Selective dynamics
Direct
0.225226 0.500000 0.793941 T T T
0.225226 0.500000 0.843141 T T T
0.225226 0.500000 0.892341 T T T
0.225226 0.500000 0.941541 T T T
0.225226 0.500000 0.990741 T T T
0.350226 0.500000 0.670941 T T T
0.350226 0.500000 0.720141 T T T
0.350226 0.500000 0.769341 T T T
0.350226 0.500000 0.818541 T T T
0.350226 0.500000 0.867741 T T T
0.350226 0.500000 0.916941 T T T
0.350226 0.500000 0.966141 T T T
0.308566 0.500000 0.695541 T T T
0.308566 0.500000 0.744741 T T T
0.308566 0.500000 0.793941 T T T
0.308566 0.500000 0.843141 T T T
0.308566 0.500000 0.892341 T T T
0.308566 0.500000 0.941541 T T T
0.308566 0.500000 0.990741 T T T
0.433566 0.500000 0.670941 T T T
0.433566 0.500000 0.720141 T T T
0.433566 0.500000 0.769341 T T T
0.433566 0.500000 0.818541 T T T
0.433566 0.500000 0.867741 T T T
0.433566 0.500000 0.916941 T T T
0.433566 0.500000 0.966141 T T T
0.475226 0.500000 0.695541 T T T
0.475226 0.500000 0.744741 T T T
0.475226 0.500000 0.793941 T T T
0.475226 0.500000 0.843141 T T T
0.475226 0.500000 0.892341 T T T
0.475226 0.500000 0.941541 T T T
0.475226 0.500000 0.990741 T T T
0.600226 0.500000 0.670941 T T T
0.600226 0.500000 0.720141 T T T
0.600226 0.500000 0.769341 T T T
0.600226 0.500000 0.818541 T T T
0.600226 0.500000 0.867741 T T T
0.600226 0.500000 0.916941 T T T
0.600226 0.500000 0.966141 T T T
0.558566 0.500000 0.695541 T T T
0.558566 0.500000 0.744741 T T T
0.558566 0.500000 0.793941 T T T
0.558566 0.500000 0.843141 T T T
0.558566 0.500000 0.892341 T T T
0.558566 0.500000 0.941541 T T T
0.558566 0.500000 0.990741 T T T
0.683566 0.500000 0.670941 T T T
0.683566 0.500000 0.720141 T T T
0.683566 0.500000 0.769341 T T T
0.683566 0.500000 0.818541 T T T
0.683566 0.500000 0.867741 T T T
0.683566 0.500000 0.916941 T T T
0.683566 0.500000 0.966141 T T T
0.725226 0.500000 0.695541 T T T
0.725226 0.500000 0.744741 T T T
0.725226 0.500000 0.793941 T T T
0.725226 0.500000 0.843141 T T T
0.725226 0.500000 0.892341 T T T
0.725226 0.500000 0.941541 T T T
0.725226 0.500000 0.990741 T T T
0.850226 0.500000 0.670941 T T T
0.850226 0.500000 0.720141 T T T
0.850226 0.500000 0.769341 T T T
0.850226 0.500000 0.818541 T T T
0.850226 0.500000 0.867741 T T T
0.850226 0.500000 0.916941 T T T
0.850226 0.500000 0.966141 T T T
0.808566 0.500000 0.695541 T T T
0.808566 0.500000 0.744741 T T T
0.808566 0.500000 0.793941 T T T
0.808566 0.500000 0.843141 T T T
0.808566 0.500000 0.892341 T T T
0.808566 0.500000 0.941541 T T T
0.808566 0.500000 0.990741 T T T
0.933566 0.500000 0.670941 T T T
0.933566 0.500000 0.720141 T T T
0.933566 0.500000 0.769341 T T T
0.933566 0.500000 0.818541 T T T
0.933566 0.500000 0.867741 T T T
0.933566 0.500000 0.916941 T T T
0.933566 0.500000 0.966141 T T T
0.997670 0.500000 0.171310 F F F
0.997670 0.500000 0.256530 F F F
0.997670 0.500000 0.341750 F F F
0.997670 0.500000 0.426960 F F F
0.997670 0.500000 0.199720 F F F
0.997670 0.500000 0.284930 F F F
0.997670 0.500000 0.370150 F F F
0.997670 0.500000 0.455370 F F F
0.926240 0.500000 0.213920 F F F
0.926240 0.500000 0.299140 F F F
0.926240 0.500000 0.384350 F F F
0.926240 0.500000 0.469570 F F F
0.926240 0.500000 0.157110 F F F
0.926240 0.500000 0.242330 F F F
0.926240 0.500000 0.327540 F F F
0.926240 0.500000 0.412760 F F F
0.854810 0.500000 0.171310 F F F
0.854810 0.500000 0.256530 F F F
0.854810 0.500000 0.341750 F F F
0.854810 0.500000 0.426960 F F F
0.783380 0.500000 0.213920 F F F
0.783380 0.500000 0.299140 F F F
0.783380 0.500000 0.384350 F F F
0.783380 0.500000 0.469570 F F F
0.854810 0.500000 0.199720 F F F
0.854810 0.500000 0.284930 F F F
0.854810 0.500000 0.370150 F F F
0.854810 0.500000 0.455370 F F F
0.783380 0.500000 0.157110 F F F
0.783380 0.500000 0.242330 F F F
0.783380 0.500000 0.327540 F F F
0.783380 0.500000 0.412760 F F F
0.711960 0.500000 0.171310 F F F
0.711960 0.500000 0.256530 F F F
0.711960 0.500000 0.341750 F F F
0.711960 0.500000 0.426960 F F F
0.640530 0.500000 0.213920 F F F
0.640530 0.500000 0.299140 F F F
0.640530 0.500000 0.384350 F F F
0.640530 0.500000 0.469570 F F F
0.711960 0.500000 0.199720 F F F
0.711960 0.500000 0.284930 F F F
0.711960 0.500000 0.370150 F F F
0.711960 0.500000 0.455370 F F F
0.640530 0.500000 0.157110 F F F
0.640530 0.500000 0.242330 F F F
0.640530 0.500000 0.327540 F F F
0.640530 0.500000 0.412760 F F F
0.569100 0.500000 0.171310 F F F
0.569100 0.500000 0.256530 F F F
0.569100 0.500000 0.341750 F F F
0.569100 0.500000 0.426960 F F F
0.497670 0.500000 0.213920 F F F
0.497670 0.500000 0.299140 F F F
0.497670 0.500000 0.384350 F F F
0.497670 0.500000 0.469570 F F F
0.569100 0.500000 0.199720 F F F
0.569100 0.500000 0.284930 F F F
0.569100 0.500000 0.370150 F F F
0.569100 0.500000 0.455370 F F F
0.497670 0.500000 0.157110 F F F
0.497670 0.500000 0.242330 F F F
0.497670 0.500000 0.327540 F F F
0.497670 0.500000 0.412760 F F F
0.426240 0.500000 0.171310 F F F
0.426240 0.500000 0.256530 F F F
0.426240 0.500000 0.341750 F F F
0.426240 0.500000 0.426960 F F F
0.354810 0.500000 0.213920 F F F
0.354810 0.500000 0.299140 F F F
0.354810 0.500000 0.384350 F F F
0.354810 0.500000 0.469570 F F F
0.426240 0.500000 0.199720 F F F
0.426240 0.500000 0.284930 F F F
0.426240 0.500000 0.370150 F F F
0.426240 0.500000 0.455370 F F F
0.354810 0.500000 0.157110 F F F
0.354810 0.500000 0.242330 F F F
0.354810 0.500000 0.327540 F F F
0.354810 0.500000 0.412760 F F F
0.283380 0.500000 0.171310 F F F
0.283380 0.500000 0.256530 F F F
0.283380 0.500000 0.341750 F F F
0.283380 0.500000 0.426960 F F F
0.211960 0.500000 0.213920 F F F
0.211960 0.500000 0.299140 F F F
0.211960 0.500000 0.384350 F F F
0.211960 0.500000 0.469570 F F F
0.283380 0.500000 0.199720 F F F
0.283380 0.500000 0.284930 F F F
0.283380 0.500000 0.370150 F F F
0.283380 0.500000 0.455370 F F F
0.211960 0.500000 0.157110 F F F
0.211960 0.500000 0.242330 F F F
0.211960 0.500000 0.327540 F F F
0.211960 0.500000 0.412760 F F F
0.140530 0.500000 0.171310 F F F
0.140530 0.500000 0.256530 F F F
0.140530 0.500000 0.341750 F F F
0.140530 0.500000 0.426960 F F F
0.069100 0.500000 0.213920 F F F
0.069100 0.500000 0.299140 F F F
0.069100 0.500000 0.384350 F F F
0.069100 0.500000 0.469570 F F F
0.140530 0.500000 0.199720 F F F
0.140530 0.500000 0.284930 F F F
0.140530 0.500000 0.370150 F F F
0.140530 0.500000 0.455370 F F F
0.069100 0.500000 0.157110 F F F
0.069100 0.500000 0.242330 F F F
0.069100 0.500000 0.327540 F F F
0.069100 0.500000 0.412760 F F F
0.307994 0.484360 0.488814 T T T
0.018706 0.975503 0.520327 T T T
0.897839 0.067744 0.532353 T T T
0.830630 0.107626 0.534751 T T T
0.566042 0.126639 0.502765 T T T
0.550586 0.430298 0.476092 T T T
0.888502 0.322991 0.517577 T T T
0.913244 0.306851 0.493971 T T T
0.555519 0.937088 0.498587 T T T
0.888577 0.853310 0.496534 T T T
0.050561 0.897298 0.534663 T T T
0.035783 0.793296 0.570042 T T T
0.929342 0.164433 0.632842 T T T
0.199683 0.291642 0.470550 T T T
0.003989 0.644357 0.571504 T T T
0.304977 0.969030 0.487143 T T T
0.781584 0.112968 0.603444 T T T
0.732910 0.698628 0.605068 T T T
0.043610 0.233042 0.541971 T T T
0.163986 0.396589 0.549176 T T T
0.401510 0.473750 0.539696 T T T
0.002886 0.787967 0.540234 T T T
0.007297 0.267863 0.661332 T T T
0.441221 0.577238 0.639356 T T T
0.494431 0.939739 0.628964 T T T
0.947600 0.554117 0.615873 T T T
0.851918 0.032826 0.571168 T T T
0.895579 0.999829 0.669423 T T T
0.471052 0.276610 0.586151 T T T
0.094804 0.511803 0.592099 T T T
0.336209 0.719581 0.669420 T T T
0.568684 0.085605 0.669421 T T T
0.442502 0.948774 0.669421 T T T
0.975226 0.500000 0.695541 T T T
0.975226 0.500000 0.744741 T T T
0.975226 0.500000 0.793941 T T T
0.975226 0.500000 0.843141 T T T
0.975226 0.500000 0.892341 T T T
0.975226 0.500000 0.941541 T T T
0.975226 0.500000 0.990741 T T T
0.100226 0.500000 0.670941 T T T
0.100226 0.500000 0.720141 T T T
0.100226 0.500000 0.769341 T T T
0.100226 0.500000 0.818541 T T T
0.100226 0.500000 0.867741 T T T
0.100226 0.500000 0.916941 T T T
0.100226 0.500000 0.966141 T T T
0.058566 0.500000 0.695541 T T T
0.058566 0.500000 0.744741 T T T
0.058566 0.500000 0.793941 T T T
0.058566 0.500000 0.843141 T T T
0.058566 0.500000 0.892341 T T T
0.058566 0.500000 0.941541 T T T
0.058566 0.500000 0.990741 T T T
0.183566 0.500000 0.670941 T T T
0.183566 0.500000 0.720141 T T T
0.183566 0.500000 0.769341 T T T
0.183566 0.500000 0.818541 T T T
0.183566 0.500000 0.867741 T T T
0.183566 0.500000 0.916941 T T T
0.183566 0.500000 0.966141 T T T
0.225226 0.500000 0.695541 T T T
0.225226 0.500000 0.744741 T T T
0.941946 0.500000 0.010491 T T T
0.091836 0.500000 0.010491 T T T
0.192076 0.500000 0.010511 T T T
0.341836 0.500000 0.010491 T T T
0.442076 0.500000 0.010511 T T T
0.591836 0.500000 0.010491 T T T
0.692076 0.500000 0.010511 T T T
0.841836 0.500000 0.010491 T T T
0.926100 0.500000 0.134310 F F F
0.783520 0.500000 0.134310 F F F
0.640670 0.500000 0.134310 F F F
0.497810 0.500000 0.134310 F F F
0.354950 0.500000 0.134310 F F F
0.212100 0.500000 0.134310 F F F
0.068960 0.500000 0.134310 F F F
0.451124 0.225213 0.471894 T T T
0.566931 0.080527 0.517873 T T T
0.608651 0.937023 0.486749 T T T
0.823052 0.868598 0.530208 T T T
0.217042 0.177185 0.486130 T T T
0.110272 0.126575 0.508587 T T T
0.641209 0.975844 0.474675 T T T
0.148777 0.541918 0.526381 T T T
0.768973 0.711180 0.478943 T T T
0.004747 0.821430 0.555788 T T T
0.275104 0.908895 0.566049 T T T
0.550553 0.724550 0.613929 T T T
0.216695 0.159450 0.562439 T T T
0.240413 0.574729 0.564649 T T T
0.366397 0.810456 0.570492 T T T
0.835128 0.632269 0.543966 T T T
0.838108 0.736160 0.585637 T T T
0.491230 0.839978 0.578496 T T T
0.253416 0.567133 0.635681 T T T
0.420335 0.032478 0.669437 T T T
0.990927 0.185230 0.642135 T T T
0.225283 0.625770 0.669441 T T T
0.409504 0.465636 0.636082 T T T
0.463817 0.141717 0.669423 T T T
0.199940 0.479263 0.586277 T T T
0.432723 0.695238 0.572725 T T T
0.551814 0.557785 0.643362 T T T
0.521166 0.708860 0.607972 T T T
