search
1.0
17.131700 0.000000 0.000000
0.000000 10.000000 0.000000
0.000000 0.000000 50.000000
C H 
227 73 
Selective dynamics
Direct
0.474283 0.500000 0.784631 T T T
0.474283 0.500000 0.833831 T T T
0.474283 0.500000 0.883031 T T T
0.474283 0.500000 0.932231 T T T
0.474283 0.500000 0.981431 T T T
0.599283 0.500000 0.661631 T T T
0.599283 0.500000 0.710831 T T T
0.599283 0.500000 0.760031 T T T
0.599283 0.500000 0.809231 T T T
0.599283 0.500000 0.858431 T T T
0.599283 0.500000 0.907631 T T T
0.599283 0.500000 0.956831 T T T
0.557623 0.500000 0.686231 T T T
0.557623 0.500000 0.735431 T T T
0.557623 0.500000 0.784631 T T T
0.557623 0.500000 0.833831 T T T
0.557623 0.500000 0.883031 T T T
0.557623 0.500000 0.932231 T T T
0.557623 0.500000 0.981431 T T T
0.682624 0.500000 0.661631 T T T
0.682624 0.500000 0.710831 T T T
0.682624 0.500000 0.760031 T T T
0.682624 0.500000 0.809231 T T T
0.682624 0.500000 0.858431 T T T
0.682624 0.500000 0.907631 T T T
0.682624 0.500000 0.956831 T T T
0.724283 0.500000 0.686231 T T T
0.724283 0.500000 0.735431 T T T
0.724283 0.500000 0.784631 T T T
0.724283 0.500000 0.833831 T T T
0.724283 0.500000 0.883031 T T T
0.724283 0.500000 0.932231 T T T
0.724283 0.500000 0.981431 T T T
0.849283 0.500000 0.661631 T T T
0.849283 0.500000 0.710831 T T T
0.849283 0.500000 0.760031 T T T
0.849283 0.500000 0.809231 T T T
0.849283 0.500000 0.858431 T T T
0.849283 0.500000 0.907631 T T T
0.849283 0.500000 0.956831 T T T
0.807623 0.500000 0.686231 T T T
0.807623 0.500000 0.735431 T T T
0.807623 0.500000 0.784631 T T T
0.807623 0.500000 0.833831 T T T
0.807623 0.500000 0.883031 T T T
0.807623 0.500000 0.932231 T T T
0.807623 0.500000 0.981431 T T T
0.932624 0.500000 0.661631 T T T
0.932624 0.500000 0.710831 T T T
0.932624 0.500000 0.760031 T T T
0.932624 0.500000 0.809231 T T T
0.932624 0.500000 0.858431 T T T
0.932624 0.500000 0.907631 T T T
0.932624 0.500000 0.956831 T T T
0.974283 0.500000 0.686231 T T T
0.974283 0.500000 0.735431 T T T
0.974283 0.500000 0.784631 T T T
0.974283 0.500000 0.833831 T T T
0.974283 0.500000 0.883031 T T T
0.974283 0.500000 0.932231 T T T
0.974283 0.500000 0.981431 T T T
0.099283 0.500000 0.661631 T T T
0.099283 0.500000 0.710831 T T T
0.099283 0.500000 0.760031 T T T
0.099283 0.500000 0.809231 T T T
0.099283 0.500000 0.858431 T T T
0.099283 0.500000 0.907631 T T T
0.099283 0.500000 0.956831 T T T
0.057623 0.500000 0.686231 T T T
0.057623 0.500000 0.735431 T T T
0.057623 0.500000 0.784631 T T T
0.057623 0.500000 0.833831 T T T
0.057623 0.500000 0.883031 T T T
0.057623 0.500000 0.932231 T T T
0.057623 0.500000 0.981431 T T T
0.182624 0.500000 0.661631 T T T
0.182624 0.500000 0.710831 T T T
0.182624 0.500000 0.760031 T T T
0.182624 0.500000 0.809231 T T T
0.182624 0.500000 0.858431 T T T
0.182624 0.500000 0.907631 T T T
0.182624 0.500000 0.956831 T T T
0.997670 0.500000 0.171310 F F F
0.997670 0.500000 0.256530 F F F
0.997670 0.500000 0.341750 F F F
0.997670 0.500000 0.426960 F F F
0.997670 0.500000 0.199720 F F F
0.997670 0.500000 0.284930 F F F
0.997670 0.500000 0.370150 F F F
0.997670 0.500000 0.455370 F F F
0.926240 0.500000 0.213920 F F F
0.926240 0.500000 0.299140 F F F
0.926240 0.500000 0.384350 F F F
0.926240 0.500000 0.469570 F F F
0.926240 0.500000 0.157110 F F F
0.926240 0.500000 0.242330 F F F
0.926240 0.500000 0.327540 F F F
0.926240 0.500000 0.412760 F F F
0.854810 0.500000 0.171310 F F F
0.854810 0.500000 0.256530 F F F
0.854810 0.500000 0.341750 F F F
0.854810 0.500000 0.426960 F F F
0.783380 0.500000 0.213920 F F F
0.783380 0.500000 0.299140 F F F
0.783380 0.500000 0.384350 F F F
0.783380 0.500000 0.469570 F F F
0.854810 0.500000 0.199720 F F F
0.854810 0.500000 0.284930 F F F
0.854810 0.500000 0.370150 F F F
0.854810 0.500000 0.455370 F F F
0.783380 0.500000 0.157110 F F F
0.783380 0.500000 0.242330 F F F
0.783380 0.500000 0.327540 F F F
0.783380 0.500000 0.412760 F F F
0.711960 0.500000 0.171310 F F F
0.711960 0.500000 0.256530 F F F
0.711960 0.500000 0.341750 F F F
0.711960 0.500000 0.426960 F F F
0.640530 0.500000 0.213920 F F F
0.640530 0.500000 0.299140 F F F
0.640530 0.500000 0.384350 F F F
0.640530 0.500000 0.469570 F F F
0.711960 0.500000 0.199720 F F F
0.711960 0.500000 0.284930 F F F
0.711960 0.500000 0.370150 F F F
0.711960 0.500000 0.455370 F F F
0.640530 0.500000 0.157110 F F F
0.640530 0.500000 0.242330 F F F
0.640530 0.500000 0.327540 F F F
0.640530 0.500000 0.412760 F F F
0.569100 0.500000 0.171310 F F F
0.569100 0.500000 0.256530 F F F
0.569100 0.500000 0.341750 F F F
0.569100 0.500000 0.426960 F F F
0.497670 0.500000 0.213920 F F F
0.497670 0.500000 0.299140 F F F
0.497670 0.500000 0.384350 F F F
0.497670 0.500000 0.469570 F F F
0.569100 0.500000 0.199720 F F F
0.569100 0.500000 0.284930 F F F
0.569100 0.500000 0.370150 F F F
0.569100 0.500000 0.455370 F F F
0.497670 0.500000 0.157110 F F F
0.497670 0.500000 0.242330 F F F
0.497670 0.500000 0.327540 F F F
0.497670 0.500000 0.412760 F F F
0.426240 0.500000 0.171310 F F F
0.426240 0.500000 0.256530 F F F
0.426240 0.500000 0.341750 F F F
0.426240 0.500000 0.426960 F F F
0.354810 0.500000 0.213920 F F F
0.354810 0.500000 0.299140 F F F
0.354810 0.500000 0.384350 F F F
0.354810 0.500000 0.469570 F F F
0.426240 0.500000 0.199720 F F F
0.426240 0.500000 0.284930 F F F
0.426240 0.500000 0.370150 F F F
0.426240 0.500000 0.455370 F F F
0.354810 0.500000 0.157110 F F F
0.354810 0.500000 0.242330 F F F
0.354810 0.500000 0.327540 F F F
0.354810 0.500000 0.412760 F F F
0.283380 0.500000 0.171310 F F F
0.283380 0.500000 0.256530 F F F
0.283380 0.500000 0.341750 F F F
0.283380 0.500000 0.426960 F F F
0.211960 0.500000 0.213920 F F F
0.211960 0.500000 0.299140 F F F
0.211960 0.500000 0.384350 F F F
0.211960 0.500000 0.469570 F F F
0.283380 0.500000 0.199720 F F F
0.283380 0.500000 0.284930 F F F
0.283380 0.500000 0.370150 F F F
0.283380 0.500000 0.455370 F F F
0.211960 0.500000 0.157110 F F F
0.211960 0.500000 0.242330 F F F
0.211960 0.500000 0.327540 F F F
0.211960 0.500000 0.412760 F F F
0.140530 0.500000 0.171310 F F F
0.140530 0.500000 0.256530 F F F
0.140530 0.500000 0.341750 F F F
0.140530 0.500000 0.426960 F F F
0.069100 0.500000 0.213920 F F F
0.069100 0.500000 0.299140 F F F
0.069100 0.500000 0.384350 F F F
0.069100 0.500000 0.469570 F F F
0.140530 0.500000 0.199720 F F F
0.140530 0.500000 0.284930 F F F
0.140530 0.500000 0.370150 F F F
0.140530 0.500000 0.455370 F F F
0.069100 0.500000 0.157110 F F F
0.069100 0.500000 0.242330 F F F
0.069100 0.500000 0.327540 F F F
0.069100 0.500000 0.412760 F F F
0.086785 0.078030 0.525612 T T T
0.295323 0.264024 0.479815 T T T
0.843638 0.288563 0.499456 T T T
0.703854 0.552040 0.520895 T T T
0.535022 0.844927 0.499124 T T T
0.753309 0.281700 0.469212 T T T
0.611423 0.865132 0.509669 T T T
0.187995 0.873004 0.490770 T T T
0.721009 0.070254 0.478498 T T T
0.794479 0.046049 0.471183 T T T
0.697539 0.145950 0.499780 T T T
0.186716 0.070017 0.577027 T T T
0.139418 0.421397 0.557214 T T T
0.669070 0.256534 0.603529 T T T
0.393084 0.551776 0.587289 T T T
0.278472 0.657550 0.529335 T T T
0.592324 0.764850 0.592022 T T T
0.475130 0.155383 0.558433 T T T
0.814303 0.766635 0.548935 T T T
0.958286 0.844104 0.470721 T T T
0.597694 0.749490 0.527841 T T T
0.318569 0.945024 0.564515 T T T
0.091781 0.138207 0.632163 T T T
0.291763 0.686387 0.599039 T T T
0.087216 0.055791 0.653908 T T T
0.120490 0.717704 0.640558 T T T
0.313762 0.957852 0.660003 T T T
0.709758 0.329672 0.620745 T T T
0.406300 0.958192 0.596931 T T T
0.545387 0.859454 0.646874 T T T
0.898270 0.925069 0.660002 T T T
0.354636 0.088097 0.660004 T T T
0.264045 0.065271 0.611530 T T T
0.224283 0.500000 0.686231 T T T
0.224283 0.500000 0.735431 T T T
0.224283 0.500000 0.784631 T T T
0.224283 0.500000 0.833831 T T T
0.224283 0.500000 0.883031 T T T
0.224283 0.500000 0.932231 T T T
0.224283 0.500000 0.981431 T T T
0.349283 0.500000 0.661631 T T T
0.349283 0.500000 0.710831 T T T
0.349283 0.500000 0.760031 T T T
0.349283 0.500000 0.809231 T T T
0.349283 0.500000 0.858431 T T T
0.349283 0.500000 0.907631 T T T
0.349283 0.500000 0.956831 T T T
0.307623 0.500000 0.686231 T T T
0.307623 0.500000 0.735431 T T T
0.307623 0.500000 0.784631 T T T
0.307623 0.500000 0.833831 T T T
0.307623 0.500000 0.883031 T T T
0.307623 0.500000 0.932231 T T T
0.307623 0.500000 0.981431 T T T
0.432624 0.500000 0.661631 T T T
0.432624 0.500000 0.710831 T T T
0.432624 0.500000 0.760031 T T T
0.432624 0.500000 0.809231 T T T
0.432624 0.500000 0.858431 T T T
0.432624 0.500000 0.907631 T T T
0.432624 0.500000 0.956831 T T T
0.474283 0.500000 0.686231 T T T
0.474283 0.500000 0.735431 T T T
0.191003 0.500000 0.001181 T T T
0.340893 0.500000 0.001181 T T T
0.441133 0.500000 0.001201 T T T
0.590893 0.500000 0.001181 T T T
0.691133 0.500000 0.001201 T T T
0.840893 0.500000 0.001181 T T T
0.941133 0.500000 0.001201 T T T
0.090893 0.500000 0.001181 T T T
0.926100 0.500000 0.134310 F F F
0.783520 0.500000 0.134310 F F F
0.640670 0.500000 0.134310 F F F
0.497810 0.500000 0.134310 F F F
0.354950 0.500000 0.134310 F F F
0.212100 0.500000 0.134310 F F F
0.068960 0.500000 0.134310 F F F
0.136794 0.162502 0.531637 T T T
0.292351 0.037970 0.519359 T T T
0.164007 0.972280 0.495442 T T T
0.905492 0.896600 0.551644 T T T
0.501263 0.103753 0.471633 T T T
0.723797 0.361987 0.479350 T T T
0.549962 0.521012 0.480421 T T T
0.334256 0.606314 0.528824 T T T
0.623456 0.534601 0.488284 T T T
0.734844 0.094528 0.556574 T T T
0.217249 0.146124 0.516096 T T T
0.680323 0.234954 0.516029 T T T
0.519244 0.985313 0.594289 T T T
0.188983 0.101041 0.526128 T T T
0.244493 0.322862 0.547289 T T T
0.723530 0.483103 0.479653 T T T
0.080726 0.654361 0.534588 T T T
0.654129 0.873455 0.555930 T T T
0.055694 0.348991 0.589233 T T T
0.176857 0.266570 0.649897 T T T
0.513873 0.384420 0.564587 T T T
0.781457 0.024265 0.562717 T T T
0.207622 0.925215 0.636986 T T T
0.456195 0.498572 0.648477 T T T
0.320885 0.546345 0.642416 T T T
0.358598 0.617476 0.637669 T T T
0.460078 0.804758 0.628845 T T T
0.834690 0.099689 0.536894 T T T
