search
1.0
17.131700 0.000000 0.000000
0.000000 10.000000 0.000000
0.000000 0.000000 50.000000
C H 
227 73 
Selective dynamics
Direct
0.359260 0.500000 0.819889 T T T
0.359260 0.500000 0.869089 T T T
0.359260 0.500000 0.918289 T T T
0.359260 0.500000 0.967489 T T T
0.359260 0.500000 0.016689 T T T
0.484260 0.500000 0.696889 T T T
0.484260 0.500000 0.746089 T T T
0.484260 0.500000 0.795289 T T T
0.484260 0.500000 0.844489 T T T
0.484260 0.500000 0.893689 T T T
0.484260 0.500000 0.942889 T T T
0.484260 0.500000 0.992089 T T T
0.442600 0.500000 0.721489 T T T
0.442600 0.500000 0.770689 T T T
0.442600 0.500000 0.819889 T T T
0.442600 0.500000 0.869089 T T T
0.442600 0.500000 0.918289 T T T
0.442600 0.500000 0.967489 T T T
0.442600 0.500000 0.016689 T T T
0.567600 0.500000 0.696889 T T T
0.567600 0.500000 0.746089 T T T
0.567600 0.500000 0.795289 T T T
0.567600 0.500000 0.844489 T T T
0.567600 0.500000 0.893689 T T T
0.567600 0.500000 0.942889 T T T
0.567600 0.500000 0.992089 T T T
0.609260 0.500000 0.721489 T T T
0.609260 0.500000 0.770689 T T T
0.609260 0.500000 0.819889 T T T
0.609260 0.500000 0.869089 T T T
0.609260 0.500000 0.918289 T T T
0.609260 0.500000 0.967489 T T T
0.609260 0.500000 0.016689 T T T
0.734260 0.500000 0.696889 T T T
0.734260 0.500000 0.746089 T T T
0.734260 0.500000 0.795289 T T T
0.734260 0.500000 0.844489 T T T
0.734260 0.500000 0.893689 T T T
0.734260 0.500000 0.942889 T T T
0.734260 0.500000 0.992089 T T T
0.692600 0.500000 0.721489 T T T
0.692600 0.500000 0.770689 T T T
0.692600 0.500000 0.819889 T T T
0.692600 0.500000 0.869089 T T T
0.692600 0.500000 0.918289 T T T
0.692600 0.500000 0.967489 T T T
0.692600 0.500000 0.016689 T T T
0.817600 0.500000 0.696889 T T T
0.817600 0.500000 0.746089 T T T
0.817600 0.500000 0.795289 T T T
0.817600 0.500000 0.844489 T T T
0.817600 0.500000 0.893689 T T T
0.817600 0.500000 0.942889 T T T
0.817600 0.500000 0.992089 T T T
0.859260 0.500000 0.721489 T T T
0.859260 0.500000 0.770689 T T T
0.859260 0.500000 0.819889 T T T
0.859260 0.500000 0.869089 T T T
0.859260 0.500000 0.918289 T T T
0.859260 0.500000 0.967489 T T T
0.859260 0.500000 0.016689 T T T
0.984260 0.500000 0.696889 T T T
0.984260 0.500000 0.746089 T T T
0.984260 0.500000 0.795289 T T T
0.984260 0.500000 0.844489 T T T
0.984260 0.500000 0.893689 T T T
0.984260 0.500000 0.942889 T T T
0.984260 0.500000 0.992089 T T T
0.942600 0.500000 0.721489 T T T
0.942600 0.500000 0.770689 T T T
0.942600 0.500000 0.819889 T T T
0.942600 0.500000 0.869089 T T T
0.942600 0.500000 0.918289 T T T
0.942600 0.500000 0.967489 T T T
0.942600 0.500000 0.016689 T T T
0.067600 0.500000 0.696889 T T T
0.067600 0.500000 0.746089 T T T
0.067600 0.500000 0.795289 T T T
0.067600 0.500000 0.844489 T T T
0.067600 0.500000 0.893689 T T T
0.067600 0.500000 0.942889 T T T
0.067600 0.500000 0.992089 T T T
0.997670 0.500000 0.171310 F F F
0.997670 0.500000 0.256530 F F F
0.997670 0.500000 0.341750 F F F
0.997670 0.500000 0.426960 F F F
0.997670 0.500000 0.199720 F F F
0.997670 0.500000 0.284930 F F F
0.997670 0.500000 0.370150 F F F
0.997670 0.500000 0.455370 F F F
0.926240 0.500000 0.213920 F F F
0.926240 0.500000 0.299140 F F F
0.926240 0.500000 0.384350 F F F
0.926240 0.500000 0.469570 F F F
0.926240 0.500000 0.157110 F F F
0.926240 0.500000 0.242330 F F F
0.926240 0.500000 0.327540 F F F
0.926240 0.500000 0.412760 F F F
0.854810 0.500000 0.171310 F F F
0.854810 0.500000 0.256530 F F F
0.854810 0.500000 0.341750 F F F
0.854810 0.500000 0.426960 F F F
0.783380 0.500000 0.213920 F F F
0.783380 0.500000 0.299140 F F F
0.783380 0.500000 0.384350 F F F
0.783380 0.500000 0.469570 F F F
0.854810 0.500000 0.199720 F F F
0.854810 0.500000 0.284930 F F F
0.854810 0.500000 0.370150 F F F
0.854810 0.500000 0.455370 F F F
0.783380 0.500000 0.157110 F F F
0.783380 0.500000 0.242330 F F F
0.783380 0.500000 0.327540 F F F
0.783380 0.500000 0.412760 F F F
0.711960 0.500000 0.171310 F F F
0.711960 0.500000 0.256530 F F F
0.711960 0.500000 0.341750 F F F
0.711960 0.500000 0.426960 F F F
0.640530 0.500000 0.213920 F F F
0.640530 0.500000 0.299140 F F F
0.640530 0.500000 0.384350 F F F
0.640530 0.500000 0.469570 F F F
0.711960 0.500000 0.199720 F F F
0.711960 0.500000 0.284930 F F F
0.711960 0.500000 0.370150 F F F
0.711960 0.500000 0.455370 F F F
0.640530 0.500000 0.157110 F F F
0.640530 0.500000 0.242330 F F F
0.640530 0.500000 0.327540 F F F
0.640530 0.500000 0.412760 F F F
0.569100 0.500000 0.171310 F F F
0.569100 0.500000 0.256530 F F F
0.569100 0.500000 0.341750 F F F
0.569100 0.500000 0.426960 F F F
0.497670 0.500000 0.213920 F F F
0.497670 0.500000 0.299140 F F F
0.497670 0.500000 0.384350 F F F
0.497670 0.500000 0.469570 F F F
0.569100 0.500000 0.199720 F F F
0.569100 0.500000 0.284930 F F F
0.569100 0.500000 0.370150 F F F
0.569100 0.500000 0.455370 F F F
0.497670 0.500000 0.157110 F F F
0.497670 0.500000 0.242330 F F F
0.497670 0.500000 0.327540 F F F
0.497670 0.500000 0.412760 F F F
0.426240 0.500000 0.171310 F F F
0.426240 0.500000 0.256530 F F F
0.426240 0.500000 0.341750 F F F
0.426240 0.500000 0.426960 F F F
0.354810 0.500000 0.213920 F F F
0.354810 0.500000 0.299140 F F F
0.354810 0.500000 0.384350 F F F
0.354810 0.500000 0.469570 F F F
0.426240 0.500000 0.199720 F F F
0.426240 0.500000 0.284930 F F F
0.426240 0.500000 0.370150 F F F
0.426240 0.500000 0.455370 F F F
0.354810 0.500000 0.157110 F F F
0.354810 0.500000 0.242330 F F F
0.354810 0.500000 0.327540 F F F
0.354810 0.500000 0.412760 F F F
0.283380 0.500000 0.171310 F F F
0.283380 0.500000 0.256530 F F F
0.283380 0.500000 0.341750 F F F
0.283380 0.500000 0.426960 F F F
0.211960 0.500000 0.213920 F F F
0.211960 0.500000 0.299140 F F F
0.211960 0.500000 0.384350 F F F
0.211960 0.500000 0.469570 F F F
0.283380 0.500000 0.199720 F F F
0.283380 0.500000 0.284930 F F F
0.283380 0.500000 0.370150 F F F
0.283380 0.500000 0.455370 F F F
0.211960 0.500000 0.157110 F F F
0.211960 0.500000 0.242330 F F F
0.211960 0.500000 0.327540 F F F
0.211960 0.500000 0.412760 F F F
0.140530 0.500000 0.171310 F F F
0.140530 0.500000 0.256530 F F F
0.140530 0.500000 0.341750 F F F
0.140530 0.500000 0.426960 F F F
0.069100 0.500000 0.213920 F F F
0.069100 0.500000 0.299140 F F F
0.069100 0.500000 0.384350 F F F
0.069100 0.500000 0.469570 F F F
0.140530 0.500000 0.199720 F F F
0.140530 0.500000 0.284930 F F F
0.140530 0.500000 0.370150 F F F
0.140530 0.500000 0.455370 F F F
0.069100 0.500000 0.157110 F F F
0.069100 0.500000 0.242330 F F F
0.069100 0.500000 0.327540 F F F
0.069100 0.500000 0.412760 F F F
0.226158 0.201245 0.488009 T T T
0.246979 0.207373 0.463433 T T T
0.105089 0.281571 0.469775 T T T
0.537343 0.355701 0.523952 T T T
0.134280 0.543538 0.483125 T T T
0.737515 0.799762 0.470000 T T T
0.613007 0.990035 0.470000 T T T
0.438960 0.096404 0.471327 T T T
0.664221 0.706640 0.496939 T T T
0.888623 0.703947 0.484689 T T T
0.456159 0.080220 0.503600 T T T
0.627907 0.567480 0.625936 T T T
0.234070 0.712027 0.526167 T T T
0.174108 0.890464 0.474641 T T T
0.873603 0.957260 0.544458 T T T
0.992489 0.782456 0.547403 T T T
0.218568 0.885456 0.500050 T T T
0.200530 0.958843 0.581649 T T T
0.005486 0.962802 0.592482 T T T
0.952813 0.633874 0.562404 T T T
0.101813 0.648161 0.496757 T T T
0.141007 0.831212 0.504270 T T T
0.798814 0.031533 0.646947 T T T
0.294593 0.871666 0.627910 T T T
0.131018 0.187859 0.678386 T T T
0.928144 0.927597 0.633790 T T T
0.038877 0.153438 0.670218 T T T
0.262878 0.746514 0.567626 T T T
0.899288 0.250809 0.674611 T T T
0.926068 0.801657 0.620365 T T T
0.336526 0.829938 0.567230 T T T
0.466573 0.049939 0.636268 T T T
0.155364 0.074355 0.685871 T T T
0.109260 0.500000 0.721489 T T T
0.109260 0.500000 0.770689 T T T
0.109260 0.500000 0.819889 T T T
0.109260 0.500000 0.869089 T T T
0.109260 0.500000 0.918289 T T T
0.109260 0.500000 0.967489 T T T
0.109260 0.500000 0.016689 T T T
0.234260 0.500000 0.696889 T T T
0.234260 0.500000 0.746089 T T T
0.234260 0.500000 0.795289 T T T
0.234260 0.500000 0.844489 T T T
0.234260 0.500000 0.893689 T T T
0.234260 0.500000 0.942889 T T T
0.234260 0.500000 0.992089 T T T
0.192600 0.500000 0.721489 T T T
0.192600 0.500000 0.770689 T T T
0.192600 0.500000 0.819889 T T T
0.192600 0.500000 0.869089 T T T
0.192600 0.500000 0.918289 T T T
0.192600 0.500000 0.967489 T T T
0.192600 0.500000 0.016689 T T T
0.317600 0.500000 0.696889 T T T
0.317600 0.500000 0.746089 T T T
0.317600 0.500000 0.795289 T T T
0.317600 0.500000 0.844489 T T T
0.317600 0.500000 0.893689 T T T
0.317600 0.500000 0.942889 T T T
0.317600 0.500000 0.992089 T T T
0.359260 0.500000 0.721489 T T T
0.359260 0.500000 0.770689 T T T
0.075980 0.500000 0.036439 T T T
0.225870 0.500000 0.036439 T T T
0.326110 0.500000 0.036459 T T T
0.475870 0.500000 0.036439 T T T
0.576110 0.500000 0.036459 T T T
0.725870 0.500000 0.036439 T T T
0.826110 0.500000 0.036459 T T T
0.975870 0.500000 0.036439 T T T
0.926100 0.500000 0.134310 F F F
0.783520 0.500000 0.134310 F F F
0.640670 0.500000 0.134310 F F F
0.497810 0.500000 0.134310 F F F
0.354950 0.500000 0.134310 F F F
0.212100 0.500000 0.134310 F F F
0.068960 0.500000 0.134310 F F F
0.258925 0.483873 0.597689 T T T
0.533082 0.510760 0.493452 T T T
0.645838 0.478259 0.503968 T T T
0.661091 0.425417 0.534656 T T T
0.759675 0.429098 0.497057 T T T
0.399617 0.256145 0.470004 T T T
0.900942 0.441439 0.477963 T T T
0.757908 0.361107 0.487712 T T T
0.803077 0.508773 0.494598 T T T
0.913045 0.384489 0.633364 T T T
0.172285 0.571700 0.592751 T T T
0.991172 0.868620 0.583836 T T T
0.688473 0.720260 0.634312 T T T
0.373379 0.843251 0.544066 T T T
0.644399 0.173339 0.589541 T T T
0.262956 0.695612 0.598058 T T T
0.710554 0.718657 0.600202 T T T
0.604205 0.788801 0.630045 T T T
0.290598 0.446074 0.695066 T T T
0.341669 0.084202 0.666495 T T T
0.998785 0.041401 0.695273 T T T
0.424800 0.215736 0.695273 T T T
0.444850 0.679843 0.614143 T T T
0.580570 0.337524 0.569746 T T T
0.974528 0.784539 0.629799 T T T
0.174427 0.756389 0.658149 T T T
0.909643 0.814488 0.601482 T T T
0.822030 0.497906 0.679867 T T T
