search
1.0
17.131700 0.000000 0.000000
0.000000 10.000000 0.000000
0.000000 0.000000 50.000000
C H 
227 73 
Selective dynamics
Direct
0.044909 0.500000 0.833444 T T T
0.044909 0.500000 0.882644 T T T
0.044909 0.500000 0.931844 T T T
0.044909 0.500000 0.981044 T T T
0.044909 0.500000 0.030244 T T T
0.169909 0.500000 0.710444 T T T
0.169909 0.500000 0.759644 T T T
0.169909 0.500000 0.808844 T T T
0.169909 0.500000 0.858044 T T T
0.169909 0.500000 0.907244 T T T
0.169909 0.500000 0.956444 T T T
0.169909 0.500000 0.005644 T T T
0.128249 0.500000 0.735044 T T T
0.128249 0.500000 0.784244 T T T
0.128249 0.500000 0.833444 T T T
0.128249 0.500000 0.882644 T T T
0.128249 0.500000 0.931844 T T T
0.128249 0.500000 0.981044 T T T
0.128249 0.500000 0.030244 T T T
0.253249 0.500000 0.710444 T T T
0.253249 0.500000 0.759644 T T T
0.253249 0.500000 0.808844 T T T
0.253249 0.500000 0.858044 T T T
0.253249 0.500000 0.907244 T T T
0.253249 0.500000 0.956444 T T T
0.253249 0.500000 0.005644 T T T
0.294909 0.500000 0.735044 T T T
0.294909 0.500000 0.784244 T T T
0.294909 0.500000 0.833444 T T T
0.294909 0.500000 0.882644 T T T
0.294909 0.500000 0.931844 T T T
0.294909 0.500000 0.981044 T T T
0.294909 0.500000 0.030244 T T T
0.419909 0.500000 0.710444 T T T
0.419909 0.500000 0.759644 T T T
0.419909 0.500000 0.808844 T T T
0.419909 0.500000 0.858044 T T T
0.419909 0.500000 0.907244 T T T
0.419909 0.500000 0.956444 T T T
0.419909 0.500000 0.005644 T T T
0.378249 0.500000 0.735044 T T T
0.378249 0.500000 0.784244 T T T
0.378249 0.500000 0.833444 T T T
0.378249 0.500000 0.882644 T T T
0.378249 0.500000 0.931844 T T T
0.378249 0.500000 0.981044 T T T
0.378249 0.500000 0.030244 T T T
0.503249 0.500000 0.710444 T T T
0.503249 0.500000 0.759644 T T T
0.503249 0.500000 0.808844 T T T
0.503249 0.500000 0.858044 T T T
0.503249 0.500000 0.907244 T T T
0.503249 0.500000 0.956444 T T T
0.503249 0.500000 0.005644 T T T
0.544909 0.500000 0.735044 T T T
0.544909 0.500000 0.784244 T T T
0.544909 0.500000 0.833444 T T T
0.544909 0.500000 0.882644 T T T
0.544909 0.500000 0.931844 T T T
0.544909 0.500000 0.981044 T T T
0.544909 0.500000 0.030244 T T T
0.669909 0.500000 0.710444 T T T
0.669909 0.500000 0.759644 T T T
0.669909 0.500000 0.808844 T T T
0.669909 0.500000 0.858044 T T T
0.669909 0.500000 0.907244 T T T
0.669909 0.500000 0.956444 T T T
0.669909 0.500000 0.005644 T T T
0.628249 0.500000 0.735044 T T T
0.628249 0.500000 0.784244 T T T
0.628249 0.500000 0.833444 T T T
0.628249 0.500000 0.882644 T T T
0.628249 0.500000 0.931844 T T T
0.628249 0.500000 0.981044 T T T
0.628249 0.500000 0.030244 T T T
0.753249 0.500000 0.710444 T T T
0.753249 0.500000 0.759644 T T T
0.753249 0.500000 0.808844 T T T
0.753249 0.500000 0.858044 T T T
0.753249 0.500000 0.907244 T T T
0.753249 0.500000 0.956444 T T T
0.753249 0.500000 0.005644 T T T
0.997670 0.500000 0.171310 F F F
0.997670 0.500000 0.256530 F F F
0.997670 0.500000 0.341750 F F F
0.997670 0.500000 0.426960 F F F
0.997670 0.500000 0.199720 F F F
0.997670 0.500000 0.284930 F F F
0.997670 0.500000 0.370150 F F F
0.997670 0.500000 0.455370 F F F
0.926240 0.500000 0.213920 F F F
0.926240 0.500000 0.299140 F F F
0.926240 0.500000 0.384350 F F F
0.926240 0.500000 0.469570 F F F
0.926240 0.500000 0.157110 F F F
0.926240 0.500000 0.242330 F F F
0.926240 0.500000 0.327540 F F F
0.926240 0.500000 0.412760 F F F
0.854810 0.500000 0.171310 F F F
0.854810 0.500000 0.256530 F F F
0.854810 0.500000 0.341750 F F F
0.854810 0.500000 0.426960 F F F
0.783380 0.500000 0.213920 F F F
0.783380 0.500000 0.299140 F F F
0.783380 0.500000 0.384350 F F F
0.783380 0.500000 0.469570 F F F
0.854810 0.500000 0.199720 F F F
0.854810 0.500000 0.284930 F F F
0.854810 0.500000 0.370150 F F F
0.854810 0.500000 0.455370 F F F
0.783380 0.500000 0.157110 F F F
0.783380 0.500000 0.242330 F F F
0.783380 0.500000 0.327540 F F F
0.783380 0.500000 0.412760 F F F
0.711960 0.500000 0.171310 F F F
0.711960 0.500000 0.256530 F F F
0.711960 0.500000 0.341750 F F F
0.711960 0.500000 0.426960 F F F
0.640530 0.500000 0.213920 F F F
0.640530 0.500000 0.299140 F F F
0.640530 0.500000 0.384350 F F F
0.640530 0.500000 0.469570 F F F
0.711960 0.500000 0.199720 F F F
0.711960 0.500000 0.284930 F F F
0.711960 0.500000 0.370150 F F F
0.711960 0.500000 0.455370 F F F
0.640530 0.500000 0.157110 F F F
0.640530 0.500000 0.242330 F F F
0.640530 0.500000 0.327540 F F F
0.640530 0.500000 0.412760 F F F
0.569100 0.500000 0.171310 F F F
0.569100 0.500000 0.256530 F F F
0.569100 0.500000 0.341750 F F F
0.569100 0.500000 0.426960 F F F
0.497670 0.500000 0.213920 F F F
0.497670 0.500000 0.299140 F F F
0.497670 0.500000 0.384350 F F F
0.497670 0.500000 0.469570 F F F
0.569100 0.500000 0.199720 F F F
0.569100 0.500000 0.284930 F F F
0.569100 0.500000 0.370150 F F F
0.569100 0.500000 0.455370 F F F
0.497670 0.500000 0.157110 F F F
0.497670 0.500000 0.242330 F F F
0.497670 0.500000 0.327540 F F F
0.497670 0.500000 0.412760 F F F
0.426240 0.500000 0.171310 F F F
0.426240 0.500000 0.256530 F F F
0.426240 0.500000 0.341750 F F F
0.426240 0.500000 0.426960 F F F
0.354810 0.500000 0.213920 F F F
0.354810 0.500000 0.299140 F F F
0.354810 0.500000 0.384350 F F F
0.354810 0.500000 0.469570 F F F
0.426240 0.500000 0.199720 F F F
0.426240 0.500000 0.284930 F F F
0.426240 0.500000 0.370150 F F F
0.426240 0.500000 0.455370 F F F
0.354810 0.500000 0.157110 F F F
0.354810 0.500000 0.242330 F F F
0.354810 0.500000 0.327540 F F F
0.354810 0.500000 0.412760 F F F
0.283380 0.500000 0.171310 F F F
0.283380 0.500000 0.256530 F F F
0.283380 0.500000 0.341750 F F F
0.283380 0.500000 0.426960 F F F
0.211960 0.500000 0.213920 F F F
0.211960 0.500000 0.299140 F F F
0.211960 0.500000 0.384350 F F F
0.211960 0.500000 0.469570 F F F
0.283380 0.500000 0.199720 F F F
0.283380 0.500000 0.284930 F F F
0.283380 0.500000 0.370150 F F F
0.283380 0.500000 0.455370 F F F
0.211960 0.500000 0.157110 F F F
0.211960 0.500000 0.242330 F F F
0.211960 0.500000 0.327540 F F F
0.211960 0.500000 0.412760 F F F
0.140530 0.500000 0.171310 F F F
0.140530 0.500000 0.256530 F F F
0.140530 0.500000 0.341750 F F F
0.140530 0.500000 0.426960 F F F
0.069100 0.500000 0.213920 F F F
0.069100 0.500000 0.299140 F F F
0.069100 0.500000 0.384350 F F F
0.069100 0.500000 0.469570 F F F
0.140530 0.500000 0.199720 F F F
0.140530 0.500000 0.284930 F F F
0.140530 0.500000 0.370150 F F F
0.140530 0.500000 0.455370 F F F
0.069100 0.500000 0.157110 F F F
0.069100 0.500000 0.242330 F F F
0.069100 0.500000 0.327540 F F F
0.069100 0.500000 0.412760 F F F
0.017607 0.177977 0.517594 T T T
0.920622 0.301861 0.491860 T T T
0.618808 0.209943 0.531571 T T T
0.791933 0.336136 0.470128 T T T
0.786743 0.901951 0.502568 T T T
0.703405 0.936509 0.510878 T T T
0.332328 0.200190 0.557076 T T T
0.012960 0.558849 0.477590 T T T
0.338940 0.015052 0.470000 T T T
0.775042 0.179301 0.543707 T T T
0.446386 0.901044 0.470000 T T T
0.948166 0.632989 0.566872 T T T
0.275342 0.309039 0.610779 T T T
0.124156 0.526582 0.585358 T T T
0.308497 0.717063 0.624424 T T T
0.242259 0.719011 0.633914 T T T
0.388192 0.092310 0.606942 T T T
0.129278 0.451157 0.546941 T T T
0.953353 0.744856 0.618649 T T T
0.875879 0.097936 0.580964 T T T
0.562772 0.178225 0.517818 T T T
0.647087 0.159686 0.483567 T T T
0.656526 0.301967 0.658620 T T T
0.040163 0.794809 0.669286 T T T
0.485376 0.003401 0.704870 T T T
0.333835 0.210343 0.708789 T T T
0.275694 0.950106 0.643515 T T T
0.761747 0.354796 0.544338 T T T
0.561650 0.308888 0.648129 T T T
0.559374 0.408321 0.696643 T T T
0.390725 0.134886 0.533117 T T T
0.458295 0.553810 0.693673 T T T
0.995248 0.837888 0.547914 T T T
0.794909 0.500000 0.735044 T T T
0.794909 0.500000 0.784244 T T T
0.794909 0.500000 0.833444 T T T
0.794909 0.500000 0.882644 T T T
0.794909 0.500000 0.931844 T T T
0.794909 0.500000 0.981044 T T T
0.794909 0.500000 0.030244 T T T
0.919909 0.500000 0.710444 T T T
0.919909 0.500000 0.759644 T T T
0.919909 0.500000 0.808844 T T T
0.919909 0.500000 0.858044 T T T
0.919909 0.500000 0.907244 T T T
0.919909 0.500000 0.956444 T T T
0.919909 0.500000 0.005644 T T T
0.878249 0.500000 0.735044 T T T
0.878249 0.500000 0.784244 T T T
0.878249 0.500000 0.833444 T T T
0.878249 0.500000 0.882644 T T T
0.878249 0.500000 0.931844 T T T
0.878249 0.500000 0.981044 T T T
0.878249 0.500000 0.030244 T T T
0.003249 0.500000 0.710444 T T T
0.003249 0.500000 0.759644 T T T
0.003249 0.500000 0.808844 T T T
0.003249 0.500000 0.858044 T T T
0.003249 0.500000 0.907244 T T T
0.003249 0.500000 0.956444 T T T
0.003249 0.500000 0.005644 T T T
0.044909 0.500000 0.735044 T T T
0.044909 0.500000 0.784244 T T T
0.761629 0.500000 0.049994 T T T
0.911519 0.500000 0.049994 T T T
0.011759 0.500000 0.050014 T T T
0.161519 0.500000 0.049994 T T T
0.261759 0.500000 0.050014 T T T
0.411519 0.500000 0.049994 T T T
0.511759 0.500000 0.050014 T T T
0.661519 0.500000 0.049994 T T T
0.926100 0.500000 0.134310 F F F
0.783520 0.500000 0.134310 F F F
0.640670 0.500000 0.134310 F F F
0.497810 0.500000 0.134310 F F F
0.354950 0.500000 0.134310 F F F
0.212100 0.500000 0.134310 F F F
0.068960 0.500000 0.134310 F F F
0.892350 0.245100 0.515589 T T T
0.692868 0.596555 0.470087 T T T
0.944002 0.574818 0.522292 T T T
0.821510 0.749310 0.525574 T T T
0.881610 0.584887 0.514755 T T T
0.980570 0.687297 0.607771 T T T
0.218346 0.299935 0.486306 T T T
0.150128 0.354110 0.542040 T T T
0.654333 0.604414 0.548451 T T T
0.338542 0.905685 0.570687 T T T
0.397237 0.671621 0.663525 T T T
0.137318 0.961972 0.629472 T T T
0.260101 0.109339 0.643853 T T T
0.005928 0.516173 0.669171 T T T
0.814398 0.536073 0.667870 T T T
0.350751 0.651950 0.569604 T T T
0.833245 0.969244 0.688200 T T T
0.193234 0.971241 0.611770 T T T
0.297360 0.191944 0.655357 T T T
0.369928 0.226384 0.634382 T T T
0.142865 0.585672 0.681845 T T T
0.334257 0.886932 0.619295 T T T
0.097556 0.508532 0.707866 T T T
0.536234 0.900712 0.708670 T T T
0.960331 0.199214 0.683811 T T T
0.469829 0.542616 0.620318 T T T
0.341385 0.432424 0.609347 T T T
0.922003 0.475017 0.610400 T T T
