search
1.0
17.131700 0.000000 0.000000
0.000000 10.000000 0.000000
0.000000 0.000000 50.000000
C H 
227 73 
Selective dynamics
Direct
0.218378 0.500000 0.784768 T T T
0.218378 0.500000 0.833968 T T T
0.218378 0.500000 0.883168 T T T
0.218378 0.500000 0.932368 T T T
0.218378 0.500000 0.981568 T T T
0.343378 0.500000 0.661768 T T T
0.343378 0.500000 0.710968 T T T
0.343378 0.500000 0.760168 T T T
0.343378 0.500000 0.809368 T T T
0.343378 0.500000 0.858568 T T T
0.343378 0.500000 0.907768 T T T
0.343378 0.500000 0.956968 T T T
0.301718 0.500000 0.686368 T T T
0.301718 0.500000 0.735568 T T T
0.301718 0.500000 0.784768 T T T
0.301718 0.500000 0.833968 T T T
0.301718 0.500000 0.883168 T T T
0.301718 0.500000 0.932368 T T T
0.301718 0.500000 0.981568 T T T
0.426718 0.500000 0.661768 T T T
0.426718 0.500000 0.710968 T T T
0.426718 0.500000 0.760168 T T T
0.426718 0.500000 0.809368 T T T
0.426718 0.500000 0.858568 T T T
0.426718 0.500000 0.907768 T T T
0.426718 0.500000 0.956968 T T T
0.468378 0.500000 0.686368 T T T
0.468378 0.500000 0.735568 T T T
0.468378 0.500000 0.784768 T T T
0.468378 0.500000 0.833968 T T T
0.468378 0.500000 0.883168 T T T
0.468378 0.500000 0.932368 T T T
0.468378 0.500000 0.981568 T T T
0.593378 0.500000 0.661768 T T T
0.593378 0.500000 0.710968 T T T
0.593378 0.500000 0.760168 T T T
0.593378 0.500000 0.809368 T T T
0.593378 0.500000 0.858568 T T T
0.593378 0.500000 0.907768 T T T
0.593378 0.500000 0.956968 T T T
0.551718 0.500000 0.686368 T T T
0.551718 0.500000 0.735568 T T T
0.551718 0.500000 0.784768 T T T
0.551718 0.500000 0.833968 T T T
0.551718 0.500000 0.883168 T T T
0.551718 0.500000 0.932368 T T T
0.551718 0.500000 0.981568 T T T
0.676718 0.500000 0.661768 T T T
0.676718 0.500000 0.710968 T T T
0.676718 0.500000 0.760168 T T T
0.676718 0.500000 0.809368 T T T
0.676718 0.500000 0.858568 T T T
0.676718 0.500000 0.907768 T T T
0.676718 0.500000 0.956968 T T T
0.718378 0.500000 0.686368 T T T
0.718378 0.500000 0.735568 T T T
0.718378 0.500000 0.784768 T T T
0.718378 0.500000 0.833968 T T T
0.718378 0.500000 0.883168 T T T
0.718378 0.500000 0.932368 T T T
0.718378 0.500000 0.981568 T T T
0.843378 0.500000 0.661768 T T T
0.843378 0.500000 0.710968 T T T
0.843378 0.500000 0.760168 T T T
0.843378 0.500000 0.809368 T T T
0.843378 0.500000 0.858568 T T T
0.843378 0.500000 0.907768 T T T
0.843378 0.500000 0.956968 T T T
0.801718 0.500000 0.686368 T T T
0.801718 0.500000 0.735568 T T T
0.801718 0.500000 0.784768 T T T
0.801718 0.500000 0.833968 T T T
0.801718 0.500000 0.883168 T T T
0.801718 0.500000 0.932368 T T T
0.801718 0.500000 0.981568 T T T
0.926718 0.500000 0.661768 T T T
0.926718 0.500000 0.710968 T T T
0.926718 0.500000 0.760168 T T T
0.926718 0.500000 0.809368 T T T
0.926718 0.500000 0.858568 T T T
0.926718 0.500000 0.907768 T T T
0.926718 0.500000 0.956968 T T T
0.997670 0.500000 0.171310 F F F
0.997670 0.500000 0.256530 F F F
0.997670 0.500000 0.341750 F F F
0.997670 0.500000 0.426960 F F F
0.997670 0.500000 0.199720 F F F
0.997670 0.500000 0.284930 F F F
0.997670 0.500000 0.370150 F F F
0.997670 0.500000 0.455370 F F F
0.926240 0.500000 0.213920 F F F
0.926240 0.500000 0.299140 F F F
0.926240 0.500000 0.384350 F F F
0.926240 0.500000 0.469570 F F F
0.926240 0.500000 0.157110 F F F
0.926240 0.500000 0.242330 F F F
0.926240 0.500000 0.327540 F F F
0.926240 0.500000 0.412760 F F F
0.854810 0.500000 0.171310 F F F
0.854810 0.500000 0.256530 F F F
0.854810 0.500000 0.341750 F F F
0.854810 0.500000 0.426960 F F F
0.783380 0.500000 0.213920 F F F
0.783380 0.500000 0.299140 F F F
0.783380 0.500000 0.384350 F F F
0.783380 0.500000 0.469570 F F F
0.854810 0.500000 0.199720 F F F
0.854810 0.500000 0.284930 F F F
0.854810 0.500000 0.370150 F F F
0.854810 0.500000 0.455370 F F F
0.783380 0.500000 0.157110 F F F
0.783380 0.500000 0.242330 F F F
0.783380 0.500000 0.327540 F F F
0.783380 0.500000 0.412760 F F F
0.711960 0.500000 0.171310 F F F
0.711960 0.500000 0.256530 F F F
0.711960 0.500000 0.341750 F F F
0.711960 0.500000 0.426960 F F F
0.640530 0.500000 0.213920 F F F
0.640530 0.500000 0.299140 F F F
0.640530 0.500000 0.384350 F F F
0.640530 0.500000 0.469570 F F F
0.711960 0.500000 0.199720 F F F
0.711960 0.500000 0.284930 F F F
0.711960 0.500000 0.370150 F F F
0.711960 0.500000 0.455370 F F F
0.640530 0.500000 0.157110 F F F
0.640530 0.500000 0.242330 F F F
0.640530 0.500000 0.327540 F F F
0.640530 0.500000 0.412760 F F F
0.569100 0.500000 0.171310 F F F
0.569100 0.500000 0.256530 F F F
0.569100 0.500000 0.341750 F F F
0.569100 0.500000 0.426960 F F F
0.497670 0.500000 0.213920 F F F
0.497670 0.500000 0.299140 F F F
0.497670 0.500000 0.384350 F F F
0.497670 0.500000 0.469570 F F F
0.569100 0.500000 0.199720 F F F
0.569100 0.500000 0.284930 F F F
0.569100 0.500000 0.370150 F F F
0.569100 0.500000 0.455370 F F F
0.497670 0.500000 0.157110 F F F
0.497670 0.500000 0.242330 F F F
0.497670 0.500000 0.327540 F F F
0.497670 0.500000 0.412760 F F F
0.426240 0.500000 0.171310 F F F
0.426240 0.500000 0.256530 F F F
0.426240 0.500000 0.341750 F F F
0.426240 0.500000 0.426960 F F F
0.354810 0.500000 0.213920 F F F
0.354810 0.500000 0.299140 F F F
0.354810 0.500000 0.384350 F F F
0.354810 0.500000 0.469570 F F F
0.426240 0.500000 0.199720 F F F
0.426240 0.500000 0.284930 F F F
0.426240 0.500000 0.370150 F F F
0.426240 0.500000 0.455370 F F F
0.354810 0.500000 0.157110 F F F
0.354810 0.500000 0.242330 F F F
0.354810 0.500000 0.327540 F F F
0.354810 0.500000 0.412760 F F F
0.283380 0.500000 0.171310 F F F
0.283380 0.500000 0.256530 F F F
0.283380 0.500000 0.341750 F F F
0.283380 0.500000 0.426960 F F F
0.211960 0.500000 0.213920 F F F
0.211960 0.500000 0.299140 F F F
0.211960 0.500000 0.384350 F F F
0.211960 0.500000 0.469570 F F F
0.283380 0.500000 0.199720 F F F
0.283380 0.500000 0.284930 F F F
0.283380 0.500000 0.370150 F F F
0.283380 0.500000 0.455370 F F F
0.211960 0.500000 0.157110 F F F
0.211960 0.500000 0.242330 F F F
0.211960 0.500000 0.327540 F F F
0.211960 0.500000 0.412760 F F F
0.140530 0.500000 0.171310 F F F
0.140530 0.500000 0.256530 F F F
0.140530 0.500000 0.341750 F F F
0.140530 0.500000 0.426960 F F F
0.069100 0.500000 0.213920 F F F
0.069100 0.500000 0.299140 F F F
0.069100 0.500000 0.384350 F F F
0.069100 0.500000 0.469570 F F F
0.140530 0.500000 0.199720 F F F
0.140530 0.500000 0.284930 F F F
0.140530 0.500000 0.370150 F F F
0.140530 0.500000 0.455370 F F F
0.069100 0.500000 0.157110 F F F
0.069100 0.500000 0.242330 F F F
0.069100 0.500000 0.327540 F F F
0.069100 0.500000 0.412760 F F F
0.452590 0.235363 0.523878 T T T
0.021584 0.069926 0.500733 T T T
0.547764 0.173462 0.470127 T T T
0.699705 0.061105 0.470001 T T T
0.426895 0.379042 0.508600 T T T
0.698104 0.894971 0.470002 T T T
0.932041 0.839320 0.476547 T T T
0.502090 0.589288 0.497093 T T T
0.606604 0.277228 0.469970 T T T
0.829987 0.691062 0.520897 T T T
0.474160 0.145372 0.506416 T T T
0.363998 0.551214 0.549638 T T T
0.365242 0.705004 0.513518 T T T
0.273012 0.958756 0.601066 T T T
0.427711 0.729151 0.533949 T T T
0.332288 0.035318 0.616528 T T T
0.393637 0.112968 0.605022 T T T
0.155246 0.169988 0.517340 T T T
0.244153 0.227663 0.564965 T T T
0.024709 0.034726 0.475175 T T T
0.505743 0.704830 0.520447 T T T
0.221081 0.057428 0.587187 T T T
0.463448 0.311862 0.579879 T T T
0.805193 0.925154 0.592667 T T T
0.146004 0.788017 0.638180 T T T
0.697770 0.844061 0.660000 T T T
0.149586 0.033619 0.660008 T T T
0.449909 0.231612 0.557137 T T T
0.566002 0.151474 0.633369 T T T
0.386030 0.394432 0.645239 T T T
0.254648 0.757960 0.585532 T T T
0.832114 0.735760 0.602426 T T T
0.472472 0.867158 0.612227 T T T
0.968378 0.500000 0.686368 T T T
0.968378 0.500000 0.735568 T T T
0.968378 0.500000 0.784768 T T T
0.968378 0.500000 0.833968 T T T
0.968378 0.500000 0.883168 T T T
0.968378 0.500000 0.932368 T T T
0.968378 0.500000 0.981568 T T T
0.093378 0.500000 0.661768 T T T
0.093378 0.500000 0.710968 T T T
0.093378 0.500000 0.760168 T T T
0.093378 0.500000 0.809368 T T T
0.093378 0.500000 0.858568 T T T
0.093378 0.500000 0.907768 T T T
0.093378 0.500000 0.956968 T T T
0.051718 0.500000 0.686368 T T T
0.051718 0.500000 0.735568 T T T
0.051718 0.500000 0.784768 T T T
0.051718 0.500000 0.833968 T T T
0.051718 0.500000 0.883168 T T T
0.051718 0.500000 0.932368 T T T
0.051718 0.500000 0.981568 T T T
0.176718 0.500000 0.661768 T T T
0.176718 0.500000 0.710968 T T T
0.176718 0.500000 0.760168 T T T
0.176718 0.500000 0.809368 T T T
0.176718 0.500000 0.858568 T T T
0.176718 0.500000 0.907768 T T T
0.176718 0.500000 0.956968 T T T
0.218378 0.500000 0.686368 T T T
0.218378 0.500000 0.735568 T T T
0.935098 0.500000 0.001318 T T T
0.084988 0.500000 0.001318 T T T
0.185228 0.500000 0.001338 T T T
0.334988 0.500000 0.001318 T T T
0.435228 0.500000 0.001338 T T T
0.584988 0.500000 0.001318 T T T
0.685228 0.500000 0.001338 T T T
0.834988 0.500000 0.001318 T T T
0.926100 0.500000 0.134310 F F F
0.783520 0.500000 0.134310 F F F
0.640670 0.500000 0.134310 F F F
0.497810 0.500000 0.134310 F F F
0.354950 0.500000 0.134310 F F F
0.212100 0.500000 0.134310 F F F
0.068960 0.500000 0.134310 F F F
0.338949 0.334561 0.544076 T T T
0.765612 0.023157 0.470003 T T T
0.868672 0.915227 0.543335 T T T
0.846966 0.983478 0.532263 T T T
0.330223 0.270722 0.529705 T T T
0.666236 0.298056 0.555619 T T T
0.772057 0.658736 0.528134 T T T
0.426290 0.626737 0.463190 T T T
0.743043 0.276884 0.472071 T T T
0.081976 0.349975 0.553671 T T T
0.278943 0.701751 0.569118 T T T
0.328157 0.028524 0.494478 T T T
0.909095 0.863641 0.547658 T T T
0.854726 0.064946 0.529454 T T T
0.848370 0.333051 0.551059 T T T
0.036792 0.356576 0.502803 T T T
0.457024 0.846663 0.536513 T T T
0.691623 0.992037 0.536185 T T T
0.118357 0.207288 0.630397 T T T
0.219568 0.195124 0.586931 T T T
0.797469 0.473923 0.649297 T T T
0.109193 0.468894 0.528298 T T T
0.794614 0.768701 0.636202 T T T
0.453565 0.441059 0.638990 T T T
0.720549 0.320557 0.617426 T T T
0.543128 0.604603 0.588283 T T T
0.322372 0.518215 0.620140 T T T
0.741715 0.714462 0.542422 T T T
