search
1.0
17.131700 0.000000 0.000000
0.000000 10.000000 0.000000
0.000000 0.000000 50.000000
C H 
227 73 
Selective dynamics
Direct
0.294109 0.500000 0.798911 T T T
0.294109 0.500000 0.848111 T T T
0.294109 0.500000 0.897311 T T T
0.294109 0.500000 0.946511 T T T
0.294109 0.500000 0.995711 T T T
0.419109 0.500000 0.675911 T T T
0.419109 0.500000 0.725111 T T T
0.419109 0.500000 0.774311 T T T
0.419109 0.500000 0.823511 T T T
0.419109 0.500000 0.872711 T T T
0.419109 0.500000 0.921911 T T T
0.419109 0.500000 0.971111 T T T
0.377449 0.500000 0.700511 T T T
0.377449 0.500000 0.749711 T T T
0.377449 0.500000 0.798911 T T T
0.377449 0.500000 0.848111 T T T
0.377449 0.500000 0.897311 T T T
0.377449 0.500000 0.946511 T T T
0.377449 0.500000 0.995711 T T T
0.502449 0.500000 0.675911 T T T
0.502449 0.500000 0.725111 T T T
0.502449 0.500000 0.774311 T T T
0.502449 0.500000 0.823511 T T T
0.502449 0.500000 0.872711 T T T
0.502449 0.500000 0.921911 T T T
0.502449 0.500000 0.971111 T T T
0.544109 0.500000 0.700511 T T T
0.544109 0.500000 0.749711 T T T
0.544109 0.500000 0.798911 T T T
0.544109 0.500000 0.848111 T T T
0.544109 0.500000 0.897311 T T T
0.544109 0.500000 0.946511 T T T
0.544109 0.500000 0.995711 T T T
0.669109 0.500000 0.675911 T T T
0.669109 0.500000 0.725111 T T T
0.669109 0.500000 0.774311 T T T
0.669109 0.500000 0.823511 T T T
0.669109 0.500000 0.872711 T T T
0.669109 0.500000 0.921911 T T T
0.669109 0.500000 0.971111 T T T
0.627449 0.500000 0.700511 T T T
0.627449 0.500000 0.749711 T T T
0.627449 0.500000 0.798911 T T T
0.627449 0.500000 0.848111 T T T
0.627449 0.500000 0.897311 T T T
0.627449 0.500000 0.946511 T T T
0.627449 0.500000 0.995711 T T T
0.752449 0.500000 0.675911 T T T
0.752449 0.500000 0.725111 T T T
0.752449 0.500000 0.774311 T T T
0.752449 0.500000 0.823511 T T T
0.752449 0.500000 0.872711 T T T
0.752449 0.500000 0.921911 T T T
0.752449 0.500000 0.971111 T T T
0.794109 0.500000 0.700511 T T T
0.794109 0.500000 0.749711 T T T
0.794109 0.500000 0.798911 T T T
0.794109 0.500000 0.848111 T T T
0.794109 0.500000 0.897311 T T T
0.794109 0.500000 0.946511 T T T
0.794109 0.500000 0.995711 T T T
0.919109 0.500000 0.675911 T T T
0.919109 0.500000 0.725111 T T T
0.919109 0.500000 0.774311 T T T
0.919109 0.500000 0.823511 T T T
0.919109 0.500000 0.872711 T T T
0.919109 0.500000 0.921911 T T T
0.919109 0.500000 0.971111 T T T
0.877449 0.500000 0.700511 T T T
0.877449 0.500000 0.749711 T T T
0.877449 0.500000 0.798911 T T T
0.877449 0.500000 0.848111 T T T
0.877449 0.500000 0.897311 T T T
0.877449 0.500000 0.946511 T T T
0.877449 0.500000 0.995711 T T T
0.002449 0.500000 0.675911 T T T
0.002449 0.500000 0.725111 T T T
0.002449 0.500000 0.774311 T T T
0.002449 0.500000 0.823511 T T T
0.002449 0.500000 0.872711 T T T
0.002449 0.500000 0.921911 T T T
0.002449 0.500000 0.971111 T T T
0.997670 0.500000 0.171310 F F F
0.997670 0.500000 0.256530 F F F
0.997670 0.500000 0.341750 F F F
0.997670 0.500000 0.426960 F F F
0.997670 0.500000 0.199720 F F F
0.997670 0.500000 0.284930 F F F
0.997670 0.500000 0.370150 F F F
0.997670 0.500000 0.455370 F F F
0.926240 0.500000 0.213920 F F F
0.926240 0.500000 0.299140 F F F
0.926240 0.500000 0.384350 F F F
0.926240 0.500000 0.469570 F F F
0.926240 0.500000 0.157110 F F F
0.926240 0.500000 0.242330 F F F
0.926240 0.500000 0.327540 F F F
0.926240 0.500000 0.412760 F F F
0.854810 0.500000 0.171310 F F F
0.854810 0.500000 0.256530 F F F
0.854810 0.500000 0.341750 F F F
0.854810 0.500000 0.426960 F F F
0.783380 0.500000 0.213920 F F F
0.783380 0.500000 0.299140 F F F
0.783380 0.500000 0.384350 F F F
0.783380 0.500000 0.469570 F F F
0.854810 0.500000 0.199720 F F F
0.854810 0.500000 0.284930 F F F
0.854810 0.500000 0.370150 F F F
0.854810 0.500000 0.455370 F F F
0.783380 0.500000 0.157110 F F F
0.783380 0.500000 0.242330 F F F
0.783380 0.500000 0.327540 F F F
0.783380 0.500000 0.412760 F F F
0.711960 0.500000 0.171310 F F F
0.711960 0.500000 0.256530 F F F
0.711960 0.500000 0.341750 F F F
0.711960 0.500000 0.426960 F F F
0.640530 0.500000 0.213920 F F F
0.640530 0.500000 0.299140 F F F
0.640530 0.500000 0.384350 F F F
0.640530 0.500000 0.469570 F F F
0.711960 0.500000 0.199720 F F F
0.711960 0.500000 0.284930 F F F
0.711960 0.500000 0.370150 F F F
0.711960 0.500000 0.455370 F F F
0.640530 0.500000 0.157110 F F F
0.640530 0.500000 0.242330 F F F
0.640530 0.500000 0.327540 F F F
0.640530 0.500000 0.412760 F F F
0.569100 0.500000 0.171310 F F F
0.569100 0.500000 0.256530 F F F
0.569100 0.500000 0.341750 F F F
0.569100 0.500000 0.426960 F F F
0.497670 0.500000 0.213920 F F F
0.497670 0.500000 0.299140 F F F
0.497670 0.500000 0.384350 F F F
0.497670 0.500000 0.469570 F F F
0.569100 0.500000 0.199720 F F F
0.569100 0.500000 0.284930 F F F
0.569100 0.500000 0.370150 F F F
0.569100 0.500000 0.455370 F F F
0.497670 0.500000 0.157110 F F F
0.497670 0.500000 0.242330 F F F
0.497670 0.500000 0.327540 F F F
0.497670 0.500000 0.412760 F F F
0.426240 0.500000 0.171310 F F F
0.426240 0.500000 0.256530 F F F
0.426240 0.500000 0.341750 F F F
0.426240 0.500000 0.426960 F F F
0.354810 0.500000 0.213920 F F F
0.354810 0.500000 0.299140 F F F
0.354810 0.500000 0.384350 F F F
0.354810 0.500000 0.469570 F F F
0.426240 0.500000 0.199720 F F F
0.426240 0.500000 0.284930 F F F
0.426240 0.500000 0.370150 F F F
0.426240 0.500000 0.455370 F F F
0.354810 0.500000 0.157110 F F F
0.354810 0.500000 0.242330 F F F
0.354810 0.500000 0.327540 F F F
0.354810 0.500000 0.412760 F F F
0.283380 0.500000 0.171310 F F F
0.283380 0.500000 0.256530 F F F
0.283380 0.500000 0.341750 F F F
0.283380 0.500000 0.426960 F F F
0.211960 0.500000 0.213920 F F F
0.211960 0.500000 0.299140 F F F
0.211960 0.500000 0.384350 F F F
0.211960 0.500000 0.469570 F F F
0.283380 0.500000 0.199720 F F F
0.283380 0.500000 0.284930 F F F
0.283380 0.500000 0.370150 F F F
0.283380 0.500000 0.455370 F F F
0.211960 0.500000 0.157110 F F F
0.211960 0.500000 0.242330 F F F
0.211960 0.500000 0.327540 F F F
0.211960 0.500000 0.412760 F F F
0.140530 0.500000 0.171310 F F F
0.140530 0.500000 0.256530 F F F
0.140530 0.500000 0.341750 F F F
0.140530 0.500000 0.426960 F F F
0.069100 0.500000 0.213920 F F F
0.069100 0.500000 0.299140 F F F
0.069100 0.500000 0.384350 F F F
0.069100 0.500000 0.469570 F F F
0.140530 0.500000 0.199720 F F F
0.140530 0.500000 0.284930 F F F
0.140530 0.500000 0.370150 F F F
0.140530 0.500000 0.455370 F F F
0.069100 0.500000 0.157110 F F F
0.069100 0.500000 0.242330 F F F
0.069100 0.500000 0.327540 F F F
0.069100 0.500000 0.412760 F F F
0.876082 0.674047 0.536669 T T T
0.421154 0.656791 0.484671 T T T
0.629870 0.817378 0.469693 T T T
0.627138 0.210476 0.473596 T T T
0.849304 0.447457 0.483715 T T T
0.552423 0.868069 0.468467 T T T
0.219642 0.849273 0.508619 T T T
0.879000 0.808172 0.469947 T T T
0.488026 0.790937 0.476014 T T T
0.513847 0.046820 0.500972 T T T
0.002407 0.038068 0.473747 T T T
0.098417 0.777732 0.615303 T T T
0.299606 0.698880 0.602472 T T T
0.679552 0.261250 0.496253 T T T
0.156928 0.170728 0.596772 T T T
0.199427 0.623241 0.539737 T T T
0.387710 0.148027 0.551134 T T T
0.262250 0.765288 0.575472 T T T
0.794884 0.758543 0.616883 T T T
0.505007 0.212597 0.533330 T T T
0.900394 0.196914 0.469999 T T T
0.403061 0.168744 0.580244 T T T
0.393645 0.014826 0.583020 T T T
0.627726 0.427156 0.657191 T T T
0.547875 0.290048 0.674189 T T T
0.594648 0.910490 0.643230 T T T
0.970108 0.985904 0.674185 T T T
0.635636 0.454008 0.514486 T T T
0.723876 0.554486 0.650361 T T T
0.426049 0.478614 0.629066 T T T
0.274855 0.229357 0.628844 T T T
0.138381 0.402938 0.642811 T T T
0.616687 0.871684 0.571598 T T T
0.044109 0.500000 0.700511 T T T
0.044109 0.500000 0.749711 T T T
0.044109 0.500000 0.798911 T T T
0.044109 0.500000 0.848111 T T T
0.044109 0.500000 0.897311 T T T
0.044109 0.500000 0.946511 T T T
0.044109 0.500000 0.995711 T T T
0.169109 0.500000 0.675911 T T T
0.169109 0.500000 0.725111 T T T
0.169109 0.500000 0.774311 T T T
0.169109 0.500000 0.823511 T T T
0.169109 0.500000 0.872711 T T T
0.169109 0.500000 0.921911 T T T
0.169109 0.500000 0.971111 T T T
0.127449 0.500000 0.700511 T T T
0.127449 0.500000 0.749711 T T T
0.127449 0.500000 0.798911 T T T
0.127449 0.500000 0.848111 T T T
0.127449 0.500000 0.897311 T T T
0.127449 0.500000 0.946511 T T T
0.127449 0.500000 0.995711 T T T
0.252449 0.500000 0.675911 T T T
0.252449 0.500000 0.725111 T T T
0.252449 0.500000 0.774311 T T T
0.252449 0.500000 0.823511 T T T
0.252449 0.500000 0.872711 T T T
0.252449 0.500000 0.921911 T T T
0.252449 0.500000 0.971111 T T T
0.294109 0.500000 0.700511 T T T
0.294109 0.500000 0.749711 T T T
0.010829 0.500000 0.015461 T T T
0.160719 0.500000 0.015461 T T T
0.260959 0.500000 0.015481 T T T
0.410719 0.500000 0.015461 T T T
0.510959 0.500000 0.015481 T T T
0.660719 0.500000 0.015461 T T T
0.760959 0.500000 0.015481 T T T
0.910719 0.500000 0.015461 T T T
0.926100 0.500000 0.134310 F F F
0.783520 0.500000 0.134310 F F F
0.640670 0.500000 0.134310 F F F
0.497810 0.500000 0.134310 F F F
0.354950 0.500000 0.134310 F F F
0.212100 0.500000 0.134310 F F F
0.068960 0.500000 0.134310 F F F
0.842310 0.377855 0.524862 T T T
0.163212 0.334418 0.469999 T T T
0.239971 0.060616 0.554490 T T T
0.003720 0.753114 0.569924 T T T
0.349146 0.155894 0.533347 T T T
0.589110 0.268132 0.563104 T T T
0.871113 0.469502 0.499780 T T T
0.530226 0.481859 0.490115 T T T
0.764729 0.286853 0.541032 T T T
0.721738 0.495988 0.583753 T T T
0.565982 0.600615 0.606400 T T T
0.390164 0.785994 0.530358 T T T
0.326210 0.154536 0.557111 T T T
0.464385 0.998183 0.624860 T T T
0.324676 0.004761 0.532199 T T T
0.262672 0.791195 0.524411 T T T
0.198615 0.539624 0.584910 T T T
0.913964 0.757164 0.520784 T T T
0.255123 0.292532 0.646985 T T T
0.551830 0.270046 0.630086 T T T
0.813543 0.539833 0.638447 T T T
0.301307 0.666612 0.579453 T T T
0.262642 0.081101 0.605352 T T T
0.085591 0.749548 0.635140 T T T
0.220029 0.894305 0.635337 T T T
0.279615 0.141368 0.543656 T T T
0.875767 0.063594 0.577692 T T T
0.515077 0.279031 0.518312 T T T
