search
1.0
17.131700 0.000000 0.000000
0.000000 10.000000 0.000000
0.000000 0.000000 50.000000
C H 
227 73 
Selective dynamics
Direct
0.503487 0.500000 0.784572 T T T
0.503487 0.500000 0.833772 T T T
0.503487 0.500000 0.882972 T T T
0.503487 0.500000 0.932172 T T T
0.503487 0.500000 0.981372 T T T
0.628487 0.500000 0.661572 T T T
0.628487 0.500000 0.710772 T T T
0.628487 0.500000 0.759972 T T T
0.628487 0.500000 0.809172 T T T
0.628487 0.500000 0.858372 T T T
0.628487 0.500000 0.907572 T T T
0.628487 0.500000 0.956772 T T T
0.586827 0.500000 0.686172 T T T
0.586827 0.500000 0.735372 T T T
0.586827 0.500000 0.784572 T T T
0.586827 0.500000 0.833772 T T T
0.586827 0.500000 0.882972 T T T
0.586827 0.500000 0.932172 T T T
0.586827 0.500000 0.981372 T T T
0.711827 0.500000 0.661572 T T T
0.711827 0.500000 0.710772 T T T
0.711827 0.500000 0.759972 T T T
0.711827 0.500000 0.809172 T T T
0.711827 0.500000 0.858372 T T T
0.711827 0.500000 0.907572 T T T
0.711827 0.500000 0.956772 T T T
0.753487 0.500000 0.686172 T T T
0.753487 0.500000 0.735372 T T T
0.753487 0.500000 0.784572 T T T
0.753487 0.500000 0.833772 T T T
0.753487 0.500000 0.882972 T T T
0.753487 0.500000 0.932172 T T T
0.753487 0.500000 0.981372 T T T
0.878487 0.500000 0.661572 T T T
0.878487 0.500000 0.710772 T T T
0.878487 0.500000 0.759972 T T T
0.878487 0.500000 0.809172 T T T
0.878487 0.500000 0.858372 T T T
0.878487 0.500000 0.907572 T T T
0.878487 0.500000 0.956772 T T T
0.836827 0.500000 0.686172 T T T
0.836827 0.500000 0.735372 T T T
0.836827 0.500000 0.784572 T T T
0.836827 0.500000 0.833772 T T T
0.836827 0.500000 0.882972 T T T
0.836827 0.500000 0.932172 T T T
0.836827 0.500000 0.981372 T T T
0.961827 0.500000 0.661572 T T T
0.961827 0.500000 0.710772 T T T
0.961827 0.500000 0.759972 T T T
0.961827 0.500000 0.809172 T T T
0.961827 0.500000 0.858372 T T T
0.961827 0.500000 0.907572 T T T
0.961827 0.500000 0.956772 T T T
0.003487 0.500000 0.686172 T T T
0.003487 0.500000 0.735372 T T T
0.003487 0.500000 0.784572 T T T
0.003487 0.500000 0.833772 T T T
0.003487 0.500000 0.882972 T T T
0.003487 0.500000 0.932172 T T T
0.003487 0.500000 0.981372 T T T
0.128487 0.500000 0.661572 T T T
0.128487 0.500000 0.710772 T T T
0.128487 0.500000 0.759972 T T T
0.128487 0.500000 0.809172 T T T
0.128487 0.500000 0.858372 T T T
0.128487 0.500000 0.907572 T T T
0.128487 0.500000 0.956772 T T T
0.086827 0.500000 0.686172 T T T
0.086827 0.500000 0.735372 T T T
0.086827 0.500000 0.784572 T T T
0.086827 0.500000 0.833772 T T T
0.086827 0.500000 0.882972 T T T
0.086827 0.500000 0.932172 T T T
0.086827 0.500000 0.981372 T T T
0.211827 0.500000 0.661572 T T T
0.211827 0.500000 0.710772 T T T
0.211827 0.500000 0.759972 T T T
0.211827 0.500000 0.809172 T T T
0.211827 0.500000 0.858372 T T T
0.211827 0.500000 0.907572 T T T
0.211827 0.500000 0.956772 T T T
0.997670 0.500000 0.171310 F F F
0.997670 0.500000 0.256530 F F F
0.997670 0.500000 0.341750 F F F
0.997670 0.500000 0.426960 F F F
0.997670 0.500000 0.199720 F F F
0.997670 0.500000 0.284930 F F F
0.997670 0.500000 0.370150 F F F
0.997670 0.500000 0.455370 F F F
0.926240 0.500000 0.213920 F F F
0.926240 0.500000 0.299140 F F F
0.926240 0.500000 0.384350 F F F
0.926240 0.500000 0.469570 F F F
0.926240 0.500000 0.157110 F F F
0.926240 0.500000 0.242330 F F F
0.926240 0.500000 0.327540 F F F
0.926240 0.500000 0.412760 F F F
0.854810 0.500000 0.171310 F F F
0.854810 0.500000 0.256530 F F F
0.854810 0.500000 0.341750 F F F
0.854810 0.500000 0.426960 F F F
0.783380 0.500000 0.213920 F F F
0.783380 0.500000 0.299140 F F F
0.783380 0.500000 0.384350 F F F
0.783380 0.500000 0.469570 F F F
0.854810 0.500000 0.199720 F F F
0.854810 0.500000 0.284930 F F F
0.854810 0.500000 0.370150 F F F
0.854810 0.500000 0.455370 F F F
0.783380 0.500000 0.157110 F F F
0.783380 0.500000 0.242330 F F F
0.783380 0.500000 0.327540 F F F
0.783380 0.500000 0.412760 F F F
0.711960 0.500000 0.171310 F F F
0.711960 0.500000 0.256530 F F F
0.711960 0.500000 0.341750 F F F
0.711960 0.500000 0.426960 F F F
0.640530 0.500000 0.213920 F F F
0.640530 0.500000 0.299140 F F F
0.640530 0.500000 0.384350 F F F
0.640530 0.500000 0.469570 F F F
0.711960 0.500000 0.199720 F F F
0.711960 0.500000 0.284930 F F F
0.711960 0.500000 0.370150 F F F
0.711960 0.500000 0.455370 F F F
0.640530 0.500000 0.157110 F F F
0.640530 0.500000 0.242330 F F F
0.640530 0.500000 0.327540 F F F
0.640530 0.500000 0.412760 F F F
0.569100 0.500000 0.171310 F F F
0.569100 0.500000 0.256530 F F F
0.569100 0.500000 0.341750 F F F
0.569100 0.500000 0.426960 F F F
0.497670 0.500000 0.213920 F F F
0.497670 0.500000 0.299140 F F F
0.497670 0.500000 0.384350 F F F
0.497670 0.500000 0.469570 F F F
0.569100 0.500000 0.199720 F F F
0.569100 0.500000 0.284930 F F F
0.569100 0.500000 0.370150 F F F
0.569100 0.500000 0.455370 F F F
0.497670 0.500000 0.157110 F F F
0.497670 0.500000 0.242330 F F F
0.497670 0.500000 0.327540 F F F
0.497670 0.500000 0.412760 F F F
0.426240 0.500000 0.171310 F F F
0.426240 0.500000 0.256530 F F F
0.426240 0.500000 0.341750 F F F
0.426240 0.500000 0.426960 F F F
0.354810 0.500000 0.213920 F F F
0.354810 0.500000 0.299140 F F F
0.354810 0.500000 0.384350 F F F
0.354810 0.500000 0.469570 F F F
0.426240 0.500000 0.199720 F F F
0.426240 0.500000 0.284930 F F F
0.426240 0.500000 0.370150 F F F
0.426240 0.500000 0.455370 F F F
0.354810 0.500000 0.157110 F F F
0.354810 0.500000 0.242330 F F F
0.354810 0.500000 0.327540 F F F
0.354810 0.500000 0.412760 F F F
0.283380 0.500000 0.171310 F F F
0.283380 0.500000 0.256530 F F F
0.283380 0.500000 0.341750 F F F
0.283380 0.500000 0.426960 F F F
0.211960 0.500000 0.213920 F F F
0.211960 0.500000 0.299140 F F F
0.211960 0.500000 0.384350 F F F
0.211960 0.500000 0.469570 F F F
0.283380 0.500000 0.199720 F F F
0.283380 0.500000 0.284930 F F F
0.283380 0.500000 0.370150 F F F
0.283380 0.500000 0.455370 F F F
0.211960 0.500000 0.157110 F F F
0.211960 0.500000 0.242330 F F F
0.211960 0.500000 0.327540 F F F
0.211960 0.500000 0.412760 F F F
0.140530 0.500000 0.171310 F F F
0.140530 0.500000 0.256530 F F F
0.140530 0.500000 0.341750 F F F
0.140530 0.500000 0.426960 F F F
0.069100 0.500000 0.213920 F F F
0.069100 0.500000 0.299140 F F F
0.069100 0.500000 0.384350 F F F
0.069100 0.500000 0.469570 F F F
0.140530 0.500000 0.199720 F F F
0.140530 0.500000 0.284930 F F F
0.140530 0.500000 0.370150 F F F
0.140530 0.500000 0.455370 F F F
0.069100 0.500000 0.157110 F F F
0.069100 0.500000 0.242330 F F F
0.069100 0.500000 0.327540 F F F
0.069100 0.500000 0.412760 F F F
0.288210 0.249588 0.510860 T T T
0.502616 0.770195 0.503901 T T T
0.211607 0.756141 0.505039 T T T
0.911122 0.926395 0.501316 T T T
0.587248 0.190890 0.503392 T T T
0.740053 0.406412 0.512405 T T T
0.760076 0.113426 0.550953 T T T
0.049647 0.122301 0.470825 T T T
0.992954 0.414646 0.481453 T T T
0.357834 0.572340 0.488135 T T T
0.255613 0.088217 0.476809 T T T
0.125579 0.118944 0.552613 T T T
0.045776 0.085799 0.500218 T T T
0.066151 0.678708 0.487582 T T T
0.166783 0.100395 0.660152 T T T
0.204418 0.375069 0.487261 T T T
0.420785 0.806872 0.620371 T T T
0.620294 0.084474 0.582028 T T T
0.293938 0.775149 0.499791 T T T
0.686577 0.090963 0.557875 T T T
0.389061 0.161032 0.487891 T T T
0.353042 0.074059 0.586927 T T T
0.851785 0.214932 0.657516 T T T
0.237903 0.091338 0.611916 T T T
0.086905 0.059025 0.662039 T T T
0.248618 0.931705 0.635665 T T T
0.919428 0.896513 0.627613 T T T
0.873777 0.996221 0.653810 T T T
0.665161 0.303051 0.605546 T T T
0.308039 0.075861 0.606418 T T T
0.263311 0.130040 0.660004 T T T
0.790663 0.081893 0.659717 T T T
0.017827 0.058150 0.651119 T T T
0.253487 0.500000 0.686172 T T T
0.253487 0.500000 0.735372 T T T
0.253487 0.500000 0.784572 T T T
0.253487 0.500000 0.833772 T T T
0.253487 0.500000 0.882972 T T T
0.253487 0.500000 0.932172 T T T
0.253487 0.500000 0.981372 T T T
0.378487 0.500000 0.661572 T T T
0.378487 0.500000 0.710772 T T T
0.378487 0.500000 0.759972 T T T
0.378487 0.500000 0.809172 T T T
0.378487 0.500000 0.858372 T T T
0.378487 0.500000 0.907572 T T T
0.378487 0.500000 0.956772 T T T
0.336827 0.500000 0.686172 T T T
0.336827 0.500000 0.735372 T T T
0.336827 0.500000 0.784572 T T T
0.336827 0.500000 0.833772 T T T
0.336827 0.500000 0.882972 T T T
0.336827 0.500000 0.932172 T T T
0.336827 0.500000 0.981372 T T T
0.461827 0.500000 0.661572 T T T
0.461827 0.500000 0.710772 T T T
0.461827 0.500000 0.759972 T T T
0.461827 0.500000 0.809172 T T T
0.461827 0.500000 0.858372 T T T
0.461827 0.500000 0.907572 T T T
0.461827 0.500000 0.956772 T T T
0.503487 0.500000 0.686172 T T T
0.503487 0.500000 0.735372 T T T
0.220207 0.500000 0.001122 T T T
0.370097 0.500000 0.001122 T T T
0.470337 0.500000 0.001142 T T T
0.620097 0.500000 0.001122 T T T
0.720337 0.500000 0.001142 T T T
0.870097 0.500000 0.001122 T T T
0.970337 0.500000 0.001142 T T T
0.120097 0.500000 0.001122 T T T
0.926100 0.500000 0.134310 F F F
0.783520 0.500000 0.134310 F F F
0.640670 0.500000 0.134310 F F F
0.497810 0.500000 0.134310 F F F
0.354950 0.500000 0.134310 F F F
0.212100 0.500000 0.134310 F F F
0.068960 0.500000 0.134310 F F F
0.417109 0.040848 0.479222 T T T
0.671156 0.080929 0.483357 T T T
0.387246 0.666510 0.498892 T T T
0.810573 0.781957 0.526503 T T T
0.922448 0.729653 0.470835 T T T
0.756345 0.807027 0.498952 T T T
0.874361 0.289202 0.469999 T T T
0.688333 0.650986 0.486272 T T T
0.907597 0.726471 0.492038 T T T
0.963986 0.975786 0.500571 T T T
0.409780 0.193841 0.510742 T T T
0.695684 0.208842 0.493893 T T T
0.484739 0.166062 0.527960 T T T
0.575368 0.062693 0.558316 T T T
0.767158 0.603716 0.498705 T T T
0.155775 0.501174 0.476893 T T T
0.130707 0.779687 0.546037 T T T
0.786619 0.756917 0.542008 T T T
0.224522 0.309748 0.580362 T T T
0.034841 0.801408 0.609031 T T T
0.581290 0.878870 0.470000 T T T
0.507718 0.020584 0.637619 T T T
0.427933 0.053356 0.631910 T T T
0.670891 0.347249 0.651703 T T T
0.670371 0.516283 0.657201 T T T
0.488176 0.651467 0.592275 T T T
0.960422 0.557827 0.574784 T T T
0.617411 0.972262 0.509581 T T T
