search
1.0
17.131700 0.000000 0.000000
0.000000 10.000000 0.000000
0.000000 0.000000 50.000000
C H 
227 73 
Selective dynamics
Direct
0.422711 0.500000 0.784533 T T T
0.422711 0.500000 0.833733 T T T
0.422711 0.500000 0.882933 T T T
0.422711 0.500000 0.932133 T T T
0.422711 0.500000 0.981333 T T T
0.547711 0.500000 0.661533 T T T
0.547711 0.500000 0.710733 T T T
0.547711 0.500000 0.759933 T T T
0.547711 0.500000 0.809133 T T T
0.547711 0.500000 0.858333 T T T
0.547711 0.500000 0.907533 T T T
0.547711 0.500000 0.956733 T T T
0.506051 0.500000 0.686133 T T T
0.506051 0.500000 0.735333 T T T
0.506051 0.500000 0.784533 T T T
0.506051 0.500000 0.833733 T T T
0.506051 0.500000 0.882933 T T T
0.506051 0.500000 0.932133 T T T
0.506051 0.500000 0.981333 T T T
0.631051 0.500000 0.661533 T T T
0.631051 0.500000 0.710733 T T T
0.631051 0.500000 0.759933 T T T
0.631051 0.500000 0.809133 T T T
0.631051 0.500000 0.858333 T T T
0.631051 0.500000 0.907533 T T T
0.631051 0.500000 0.956733 T T T
0.672711 0.500000 0.686133 T T T
0.672711 0.500000 0.735333 T T T
0.672711 0.500000 0.784533 T T T
0.672711 0.500000 0.833733 T T T
0.672711 0.500000 0.882933 T T T
0.672711 0.500000 0.932133 T T T
0.672711 0.500000 0.981333 T T T
0.797711 0.500000 0.661533 T T T
0.797711 0.500000 0.710733 T T T
0.797711 0.500000 0.759933 T T T
0.797711 0.500000 0.809133 T T T
0.797711 0.500000 0.858333 T T T
0.797711 0.500000 0.907533 T T T
0.797711 0.500000 0.956733 T T T
0.756051 0.500000 0.686133 T T T
0.756051 0.500000 0.735333 T T T
0.756051 0.500000 0.784533 T T T
0.756051 0.500000 0.833733 T T T
0.756051 0.500000 0.882933 T T T
0.756051 0.500000 0.932133 T T T
0.756051 0.500000 0.981333 T T T
0.881051 0.500000 0.661533 T T T
0.881051 0.500000 0.710733 T T T
0.881051 0.500000 0.759933 T T T
0.881051 0.500000 0.809133 T T T
0.881051 0.500000 0.858333 T T T
0.881051 0.500000 0.907533 T T T
0.881051 0.500000 0.956733 T T T
0.922711 0.500000 0.686133 T T T
0.922711 0.500000 0.735333 T T T
0.922711 0.500000 0.784533 T T T
0.922711 0.500000 0.833733 T T T
0.922711 0.500000 0.882933 T T T
0.922711 0.500000 0.932133 T T T
0.922711 0.500000 0.981333 T T T
0.047711 0.500000 0.661533 T T T
0.047711 0.500000 0.710733 T T T
0.047711 0.500000 0.759933 T T T
0.047711 0.500000 0.809133 T T T
0.047711 0.500000 0.858333 T T T
0.047711 0.500000 0.907533 T T T
0.047711 0.500000 0.956733 T T T
0.006051 0.500000 0.686133 T T T
0.006051 0.500000 0.735333 T T T
0.006051 0.500000 0.784533 T T T
0.006051 0.500000 0.833733 T T T
0.006051 0.500000 0.882933 T T T
0.006051 0.500000 0.932133 T T T
0.006051 0.500000 0.981333 T T T
0.131051 0.500000 0.661533 T T T
0.131051 0.500000 0.710733 T T T
0.131051 0.500000 0.759933 T T T
0.131051 0.500000 0.809133 T T T
0.131051 0.500000 0.858333 T T T
0.131051 0.500000 0.907533 T T T
0.131051 0.500000 0.956733 T T T
0.997670 0.500000 0.171310 F F F
0.997670 0.500000 0.256530 F F F
0.997670 0.500000 0.341750 F F F
0.997670 0.500000 0.426960 F F F
0.997670 0.500000 0.199720 F F F
0.997670 0.500000 0.284930 F F F
0.997670 0.500000 0.370150 F F F
0.997670 0.500000 0.455370 F F F
0.926240 0.500000 0.213920 F F F
0.926240 0.500000 0.299140 F F F
0.926240 0.500000 0.384350 F F F
0.926240 0.500000 0.469570 F F F
0.926240 0.500000 0.157110 F F F
0.926240 0.500000 0.242330 F F F
0.926240 0.500000 0.327540 F F F
0.926240 0.500000 0.412760 F F F
0.854810 0.500000 0.171310 F F F
0.854810 0.500000 0.256530 F F F
0.854810 0.500000 0.341750 F F F
0.854810 0.500000 0.426960 F F F
0.783380 0.500000 0.213920 F F F
0.783380 0.500000 0.299140 F F F
0.783380 0.500000 0.384350 F F F
0.783380 0.500000 0.469570 F F F
0.854810 0.500000 0.199720 F F F
0.854810 0.500000 0.284930 F F F
0.854810 0.500000 0.370150 F F F
0.854810 0.500000 0.455370 F F F
0.783380 0.500000 0.157110 F F F
0.783380 0.500000 0.242330 F F F
0.783380 0.500000 0.327540 F F F
0.783380 0.500000 0.412760 F F F
0.711960 0.500000 0.171310 F F F
0.711960 0.500000 0.256530 F F F
0.711960 0.500000 0.341750 F F F
0.711960 0.500000 0.426960 F F F
0.640530 0.500000 0.213920 F F F
0.640530 0.500000 0.299140 F F F
0.640530 0.500000 0.384350 F F F
0.640530 0.500000 0.469570 F F F
0.711960 0.500000 0.199720 F F F
0.711960 0.500000 0.284930 F F F
0.711960 0.500000 0.370150 F F F
0.711960 0.500000 0.455370 F F F
0.640530 0.500000 0.157110 F F F
0.640530 0.500000 0.242330 F F F
0.640530 0.500000 0.327540 F F F
0.640530 0.500000 0.412760 F F F
0.569100 0.500000 0.171310 F F F
0.569100 0.500000 0.256530 F F F
0.569100 0.500000 0.341750 F F F
0.569100 0.500000 0.426960 F F F
0.497670 0.500000 0.213920 F F F
0.497670 0.500000 0.299140 F F F
0.497670 0.500000 0.384350 F F F
0.497670 0.500000 0.469570 F F F
0.569100 0.500000 0.199720 F F F
0.569100 0.500000 0.284930 F F F
0.569100 0.500000 0.370150 F F F
0.569100 0.500000 0.455370 F F F
0.497670 0.500000 0.157110 F F F
0.497670 0.500000 0.242330 F F F
0.497670 0.500000 0.327540 F F F
0.497670 0.500000 0.412760 F F F
0.426240 0.500000 0.171310 F F F
0.426240 0.500000 0.256530 F F F
0.426240 0.500000 0.341750 F F F
0.426240 0.500000 0.426960 F F F
0.354810 0.500000 0.213920 F F F
0.354810 0.500000 0.299140 F F F
0.354810 0.500000 0.384350 F F F
0.354810 0.500000 0.469570 F F F
0.426240 0.500000 0.199720 F F F
0.426240 0.500000 0.284930 F F F
0.426240 0.500000 0.370150 F F F
0.426240 0.500000 0.455370 F F F
0.354810 0.500000 0.157110 F F F
0.354810 0.500000 0.242330 F F F
0.354810 0.500000 0.327540 F F F
0.354810 0.500000 0.412760 F F F
0.283380 0.500000 0.171310 F F F
0.283380 0.500000 0.256530 F F F
0.283380 0.500000 0.341750 F F F
0.283380 0.500000 0.426960 F F F
0.211960 0.500000 0.213920 F F F
0.211960 0.500000 0.299140 F F F
0.211960 0.500000 0.384350 F F F
0.211960 0.500000 0.469570 F F F
0.283380 0.500000 0.199720 F F F
0.283380 0.500000 0.284930 F F F
0.283380 0.500000 0.370150 F F F
0.283380 0.500000 0.455370 F F F
0.211960 0.500000 0.157110 F F F
0.211960 0.500000 0.242330 F F F
0.211960 0.500000 0.327540 F F F
0.211960 0.500000 0.412760 F F F
0.140530 0.500000 0.171310 F F F
0.140530 0.500000 0.256530 F F F
0.140530 0.500000 0.341750 F F F
0.140530 0.500000 0.426960 F F F
0.069100 0.500000 0.213920 F F F
0.069100 0.500000 0.299140 F F F
0.069100 0.500000 0.384350 F F F
0.069100 0.500000 0.469570 F F F
0.140530 0.500000 0.199720 F F F
0.140530 0.500000 0.284930 F F F
0.140530 0.500000 0.370150 F F F
0.140530 0.500000 0.455370 F F F
0.069100 0.500000 0.157110 F F F
0.069100 0.500000 0.242330 F F F
0.069100 0.500000 0.327540 F F F
0.069100 0.500000 0.412760 F F F
0.421969 0.023113 0.513621 T T T
0.916057 0.037432 0.469996 T T T
0.240912 0.068748 0.516535 T T T
0.652652 0.357635 0.478568 T T T
0.590993 0.901883 0.498533 T T T
0.541859 0.185246 0.470704 T T T
0.528508 0.657309 0.517784 T T T
0.087639 0.336829 0.476746 T T T
0.039703 0.848745 0.468419 T T T
0.519629 0.036483 0.469695 T T T
0.083874 0.984225 0.474827 T T T
0.143436 0.498786 0.532614 T T T
0.226046 0.900332 0.516381 T T T
0.158068 0.925177 0.482500 T T T
0.329341 0.902970 0.535307 T T T
0.153418 0.950174 0.528990 T T T
0.289109 0.072690 0.582538 T T T
0.677662 0.663373 0.586640 T T T
0.745953 0.141966 0.604703 T T T
0.750645 0.091709 0.486141 T T T
0.108693 0.110779 0.486198 T T T
0.117922 0.062523 0.537059 T T T
0.267332 0.372188 0.596653 T T T
0.420748 0.050019 0.632426 T T T
0.075036 0.186202 0.648293 T T T
0.957413 0.020693 0.646495 T T T
0.684450 0.034747 0.658776 T T T
0.727554 0.503709 0.613464 T T T
0.260175 0.895116 0.659992 T T T
0.598756 0.843325 0.645733 T T T
0.266412 0.666639 0.617411 T T T
0.245590 0.720250 0.640568 T T T
0.571686 0.971790 0.643840 T T T
0.172711 0.500000 0.686133 T T T
0.172711 0.500000 0.735333 T T T
0.172711 0.500000 0.784533 T T T
0.172711 0.500000 0.833733 T T T
0.172711 0.500000 0.882933 T T T
0.172711 0.500000 0.932133 T T T
0.172711 0.500000 0.981333 T T T
0.297711 0.500000 0.661533 T T T
0.297711 0.500000 0.710733 T T T
0.297711 0.500000 0.759933 T T T
0.297711 0.500000 0.809133 T T T
0.297711 0.500000 0.858333 T T T
0.297711 0.500000 0.907533 T T T
0.297711 0.500000 0.956733 T T T
0.256051 0.500000 0.686133 T T T
0.256051 0.500000 0.735333 T T T
0.256051 0.500000 0.784533 T T T
0.256051 0.500000 0.833733 T T T
0.256051 0.500000 0.882933 T T T
0.256051 0.500000 0.932133 T T T
0.256051 0.500000 0.981333 T T T
0.381051 0.500000 0.661533 T T T
0.381051 0.500000 0.710733 T T T
0.381051 0.500000 0.759933 T T T
0.381051 0.500000 0.809133 T T T
0.381051 0.500000 0.858333 T T T
0.381051 0.500000 0.907533 T T T
0.381051 0.500000 0.956733 T T T
0.422711 0.500000 0.686133 T T T
0.422711 0.500000 0.735333 T T T
0.139431 0.500000 0.001083 T T T
0.289321 0.500000 0.001083 T T T
0.389561 0.500000 0.001103 T T T
0.539321 0.500000 0.001083 T T T
0.639561 0.500000 0.001103 T T T
0.789321 0.500000 0.001083 T T T
0.889561 0.500000 0.001103 T T T
0.039321 0.500000 0.001083 T T T
0.926100 0.500000 0.134310 F F F
0.783520 0.500000 0.134310 F F F
0.640670 0.500000 0.134310 F F F
0.497810 0.500000 0.134310 F F F
0.354950 0.500000 0.134310 F F F
0.212100 0.500000 0.134310 F F F
0.068960 0.500000 0.134310 F F F
0.794796 0.177689 0.555484 T T T
0.594489 0.077473 0.495700 T T T
0.202306 0.617505 0.480649 T T T
0.207695 0.586593 0.579704 T T T
0.560787 0.006307 0.455703 T T T
0.836376 0.126077 0.517910 T T T
0.485971 0.223225 0.469979 T T T
0.606119 0.783375 0.470980 T T T
0.911481 0.509511 0.522620 T T T
0.137466 0.430773 0.549424 T T T
0.308126 0.083467 0.547767 T T T
0.696404 0.288766 0.512780 T T T
0.341049 0.543222 0.601254 T T T
0.514249 0.641555 0.538954 T T T
0.116092 0.854610 0.585540 T T T
0.457143 0.938815 0.509069 T T T
0.131301 0.256789 0.515241 T T T
0.874763 0.844524 0.566372 T T T
0.393175 0.103072 0.616066 T T T
0.115079 0.853831 0.601614 T T T
0.245770 0.153580 0.635685 T T T
0.080495 0.573991 0.597034 T T T
0.836620 0.817437 0.571459 T T T
0.121962 0.259730 0.648156 T T T
0.936764 0.239431 0.653520 T T T
0.570294 0.329167 0.618425 T T T
0.544957 0.450493 0.558072 T T T
0.740779 0.804452 0.568164 T T T
