search
1.0
17.131700 0.000000 0.000000
0.000000 10.000000 0.000000
0.000000 0.000000 50.000000
C H 
227 73 
Selective dynamics
Direct
0.361461 0.500000 0.828386 T T T
0.361461 0.500000 0.877586 T T T
0.361461 0.500000 0.926786 T T T
0.361461 0.500000 0.975986 T T T
0.361461 0.500000 0.025186 T T T
0.486461 0.500000 0.705386 T T T
0.486461 0.500000 0.754586 T T T
0.486461 0.500000 0.803786 T T T
0.486461 0.500000 0.852986 T T T
0.486461 0.500000 0.902186 T T T
0.486461 0.500000 0.951386 T T T
0.486461 0.500000 0.000586 T T T
0.444801 0.500000 0.729986 T T T
0.444801 0.500000 0.779186 T T T
0.444801 0.500000 0.828386 T T T
0.444801 0.500000 0.877586 T T T
0.444801 0.500000 0.926786 T T T
0.444801 0.500000 0.975986 T T T
0.444801 0.500000 0.025186 T T T
0.569801 0.500000 0.705386 T T T
0.569801 0.500000 0.754586 T T T
0.569801 0.500000 0.803786 T T T
0.569801 0.500000 0.852986 T T T
0.569801 0.500000 0.902186 T T T
0.569801 0.500000 0.951386 T T T
0.569801 0.500000 0.000586 T T T
0.611461 0.500000 0.729986 T T T
0.611461 0.500000 0.779186 T T T
0.611461 0.500000 0.828386 T T T
0.611461 0.500000 0.877586 T T T
0.611461 0.500000 0.926786 T T T
0.611461 0.500000 0.975986 T T T
0.611461 0.500000 0.025186 T T T
0.736461 0.500000 0.705386 T T T
0.736461 0.500000 0.754586 T T T
0.736461 0.500000 0.803786 T T T
0.736461 0.500000 0.852986 T T T
0.736461 0.500000 0.902186 T T T
0.736461 0.500000 0.951386 T T T
0.736461 0.500000 0.000586 T T T
0.694801 0.500000 0.729986 T T T
0.694801 0.500000 0.779186 T T T
0.694801 0.500000 0.828386 T T T
0.694801 0.500000 0.877586 T T T
0.694801 0.500000 0.926786 T T T
0.694801 0.500000 0.975986 T T T
0.694801 0.500000 0.025186 T T T
0.819801 0.500000 0.705386 T T T
0.819801 0.500000 0.754586 T T T
0.819801 0.500000 0.803786 T T T
0.819801 0.500000 0.852986 T T T
0.819801 0.500000 0.902186 T T T
0.819801 0.500000 0.951386 T T T
0.819801 0.500000 0.000586 T T T
0.861461 0.500000 0.729986 T T T
0.861461 0.500000 0.779186 T T T
0.861461 0.500000 0.828386 T T T
0.861461 0.500000 0.877586 T T T
0.861461 0.500000 0.926786 T T T
0.861461 0.500000 0.975986 T T T
0.861461 0.500000 0.025186 T T T
0.986461 0.500000 0.705386 T T T
0.986461 0.500000 0.754586 T T T
0.986461 0.500000 0.803786 T T T
0.986461 0.500000 0.852986 T T T
0.986461 0.500000 0.902186 T T T
0.986461 0.500000 0.951386 T T T
0.986461 0.500000 0.000586 T T T
0.944801 0.500000 0.729986 T T T
0.944801 0.500000 0.779186 T T T
0.944801 0.500000 0.828386 T T T
0.944801 0.500000 0.877586 T T T
0.944801 0.500000 0.926786 T T T
0.944801 0.500000 0.975986 T T T
0.944801 0.500000 0.025186 T T T
0.069801 0.500000 0.705386 T T T
0.069801 0.500000 0.754586 T T T
0.069801 0.500000 0.803786 T T T
0.069801 0.500000 0.852986 T T T
0.069801 0.500000 0.902186 T T T
0.069801 0.500000 0.951386 T T T
0.069801 0.500000 0.000586 T T T
0.997670 0.500000 0.171310 F F F
0.997670 0.500000 0.256530 F F F
0.997670 0.500000 0.341750 F F F
0.997670 0.500000 0.426960 F F F
0.997670 0.500000 0.199720 F F F
0.997670 0.500000 0.284930 F F F
0.997670 0.500000 0.370150 F F F
0.997670 0.500000 0.455370 F F F
0.926240 0.500000 0.213920 F F F
0.926240 0.500000 0.299140 F F F
0.926240 0.500000 0.384350 F F F
0.926240 0.500000 0.469570 F F F
0.926240 0.500000 0.157110 F F F
0.926240 0.500000 0.242330 F F F
0.926240 0.500000 0.327540 F F F
0.926240 0.500000 0.412760 F F F
0.854810 0.500000 0.171310 F F F
0.854810 0.500000 0.256530 F F F
0.854810 0.500000 0.341750 F F F
0.854810 0.500000 0.426960 F F F
0.783380 0.500000 0.213920 F F F
0.783380 0.500000 0.299140 F F F
0.783380 0.500000 0.384350 F F F
0.783380 0.500000 0.469570 F F F
0.854810 0.500000 0.199720 F F F
0.854810 0.500000 0.284930 F F F
0.854810 0.500000 0.370150 F F F
0.854810 0.500000 0.455370 F F F
0.783380 0.500000 0.157110 F F F
0.783380 0.500000 0.242330 F F F
0.783380 0.500000 0.327540 F F F
0.783380 0.500000 0.412760 F F F
0.711960 0.500000 0.171310 F F F
0.711960 0.500000 0.256530 F F F
0.711960 0.500000 0.341750 F F F
0.711960 0.500000 0.426960 F F F
0.640530 0.500000 0.213920 F F F
0.640530 0.500000 0.299140 F F F
0.640530 0.500000 0.384350 F F F
0.640530 0.500000 0.469570 F F F
0.711960 0.500000 0.199720 F F F
0.711960 0.500000 0.284930 F F F
0.711960 0.500000 0.370150 F F F
0.711960 0.500000 0.455370 F F F
0.640530 0.500000 0.157110 F F F
0.640530 0.500000 0.242330 F F F
0.640530 0.500000 0.327540 F F F
0.640530 0.500000 0.412760 F F F
0.569100 0.500000 0.171310 F F F
0.569100 0.500000 0.256530 F F F
0.569100 0.500000 0.341750 F F F
0.569100 0.500000 0.426960 F F F
0.497670 0.500000 0.213920 F F F
0.497670 0.500000 0.299140 F F F
0.497670 0.500000 0.384350 F F F
0.497670 0.500000 0.469570 F F F
0.569100 0.500000 0.199720 F F F
0.569100 0.500000 0.284930 F F F
0.569100 0.500000 0.370150 F F F
0.569100 0.500000 0.455370 F F F
0.497670 0.500000 0.157110 F F F
0.497670 0.500000 0.242330 F F F
0.497670 0.500000 0.327540 F F F
0.497670 0.500000 0.412760 F F F
0.426240 0.500000 0.171310 F F F
0.426240 0.500000 0.256530 F F F
0.426240 0.500000 0.341750 F F F
0.426240 0.500000 0.426960 F F F
0.354810 0.500000 0.213920 F F F
0.354810 0.500000 0.299140 F F F
0.354810 0.500000 0.384350 F F F
0.354810 0.500000 0.469570 F F F
0.426240 0.500000 0.199720 F F F
0.426240 0.500000 0.284930 F F F
0.426240 0.500000 0.370150 F F F
0.426240 0.500000 0.455370 F F F
0.354810 0.500000 0.157110 F F F
0.354810 0.500000 0.242330 F F F
0.354810 0.500000 0.327540 F F F
0.354810 0.500000 0.412760 F F F
0.283380 0.500000 0.171310 F F F
0.283380 0.500000 0.256530 F F F
0.283380 0.500000 0.341750 F F F
0.283380 0.500000 0.426960 F F F
0.211960 0.500000 0.213920 F F F
0.211960 0.500000 0.299140 F F F
0.211960 0.500000 0.384350 F F F
0.211960 0.500000 0.469570 F F F
0.283380 0.500000 0.199720 F F F
0.283380 0.500000 0.284930 F F F
0.283380 0.500000 0.370150 F F F
0.283380 0.500000 0.455370 F F F
0.211960 0.500000 0.157110 F F F
0.211960 0.500000 0.242330 F F F
0.211960 0.500000 0.327540 F F F
0.211960 0.500000 0.412760 F F F
0.140530 0.500000 0.171310 F F F
0.140530 0.500000 0.256530 F F F
0.140530 0.500000 0.341750 F F F
0.140530 0.500000 0.426960 F F F
0.069100 0.500000 0.213920 F F F
0.069100 0.500000 0.299140 F F F
0.069100 0.500000 0.384350 F F F
0.069100 0.500000 0.469570 F F F
0.140530 0.500000 0.199720 F F F
0.140530 0.500000 0.284930 F F F
0.140530 0.500000 0.370150 F F F
0.140530 0.500000 0.455370 F F F
0.069100 0.500000 0.157110 F F F
0.069100 0.500000 0.242330 F F F
0.069100 0.500000 0.327540 F F F
0.069100 0.500000 0.412760 F F F
0.436390 0.916826 0.528176 T T T
0.254818 0.124784 0.486661 T T T
0.951047 0.499159 0.500413 T T T
0.846983 0.872629 0.502249 T T T
0.661846 0.006546 0.496124 T T T
0.742016 0.194698 0.489920 T T T
0.738154 0.514564 0.500479 T T T
0.806854 0.689517 0.508244 T T T
0.910287 0.816422 0.509563 T T T
0.608493 0.045885 0.479654 T T T
0.824330 0.066475 0.470951 T T T
0.997710 0.961401 0.597701 T T T
0.215573 0.160572 0.606082 T T T
0.024176 0.290252 0.588570 T T T
0.432288 0.848045 0.586645 T T T
0.296249 0.004985 0.560669 T T T
0.474429 0.226188 0.582163 T T T
0.893050 0.311871 0.530789 T T T
0.469743 0.742390 0.557835 T T T
0.525721 0.807044 0.597527 T T T
0.707493 0.711734 0.555596 T T T
0.572518 0.848679 0.554183 T T T
0.313208 0.888273 0.701330 T T T
0.732562 0.145360 0.666665 T T T
0.544389 0.302465 0.703681 T T T
0.995689 0.370857 0.665509 T T T
0.390586 0.929820 0.706999 T T T
0.680073 0.300620 0.703681 T T T
0.959874 0.548606 0.627879 T T T
0.580084 0.534013 0.650237 T T T
0.778138 0.453384 0.684034 T T T
0.700947 0.975285 0.670759 T T T
0.075996 0.943410 0.685315 T T T
0.111461 0.500000 0.729986 T T T
0.111461 0.500000 0.779186 T T T
0.111461 0.500000 0.828386 T T T
0.111461 0.500000 0.877586 T T T
0.111461 0.500000 0.926786 T T T
0.111461 0.500000 0.975986 T T T
0.111461 0.500000 0.025186 T T T
0.236461 0.500000 0.705386 T T T
0.236461 0.500000 0.754586 T T T
0.236461 0.500000 0.803786 T T T
0.236461 0.500000 0.852986 T T T
0.236461 0.500000 0.902186 T T T
0.236461 0.500000 0.951386 T T T
0.236461 0.500000 0.000586 T T T
0.194801 0.500000 0.729986 T T T
0.194801 0.500000 0.779186 T T T
0.194801 0.500000 0.828386 T T T
0.194801 0.500000 0.877586 T T T
0.194801 0.500000 0.926786 T T T
0.194801 0.500000 0.975986 T T T
0.194801 0.500000 0.025186 T T T
0.319801 0.500000 0.705386 T T T
0.319801 0.500000 0.754586 T T T
0.319801 0.500000 0.803786 T T T
0.319801 0.500000 0.852986 T T T
0.319801 0.500000 0.902186 T T T
0.319801 0.500000 0.951386 T T T
0.319801 0.500000 0.000586 T T T
0.361461 0.500000 0.729986 T T T
0.361461 0.500000 0.779186 T T T
0.078181 0.500000 0.044936 T T T
0.228071 0.500000 0.044936 T T T
0.328311 0.500000 0.044956 T T T
0.478071 0.500000 0.044936 T T T
0.578311 0.500000 0.044956 T T T
0.728071 0.500000 0.044936 T T T
0.828311 0.500000 0.044956 T T T
0.978071 0.500000 0.044936 T T T
0.926100 0.500000 0.134310 F F F
0.783520 0.500000 0.134310 F F F
0.640670 0.500000 0.134310 F F F
0.497810 0.500000 0.134310 F F F
0.354950 0.500000 0.134310 F F F
0.212100 0.500000 0.134310 F F F
0.068960 0.500000 0.134310 F F F
0.917308 0.077199 0.516435 T T T
0.014490 0.079767 0.548966 T T T
0.159911 0.340943 0.509805 T T T
0.310986 0.902774 0.504574 T T T
0.196602 0.927410 0.486572 T T T
0.638923 0.352019 0.491695 T T T
0.210290 0.615405 0.470367 T T T
0.327926 0.662143 0.499683 T T T
0.722887 0.634810 0.536273 T T T
0.994948 0.032626 0.558946 T T T
0.228179 0.239765 0.554387 T T T
0.239666 0.538219 0.534620 T T T
0.551399 0.483059 0.594691 T T T
0.130399 0.191496 0.563558 T T T
0.472013 0.315601 0.543738 T T T
0.734048 0.696690 0.500416 T T T
0.251191 0.755692 0.563618 T T T
0.522987 0.041231 0.563325 T T T
0.018375 0.509415 0.689742 T T T
0.536919 0.195459 0.667356 T T T
0.597223 0.434071 0.551740 T T T
0.174816 0.107367 0.591996 T T T
0.325099 0.906008 0.680585 T T T
0.490330 0.212869 0.607921 T T T
0.388086 0.631510 0.703679 T T T
0.220448 0.639276 0.698311 T T T
0.568714 0.855262 0.580110 T T T
0.739636 0.946170 0.585932 T T T
